$$$$$$$$$$$$$$$$$$$$$$$$$$$$$$$$$$$$$$$$$$$$$$$$$$$$$$$$$$$$$$$$$$$$$$$$$$$$$$
$ Date: 2022-04-08 22:49
$ Components: C, CR, FE, MO, NB, NI, VA
$ Phases: BCC_A2, CEMENTITE_D011, CR3C2, DELTA, DIAMOND_A4, DIAMOND_ALCU, 
$  D_NIMO, FCC_A1,GAMMA_DOUBLE_PRIME, GAMMA_PRIME, GRAPHITE, HCP_A3, LAVES,
$  LAVES_PHASE_C15, LIQUID, M23C6, M7C3, MC_ETA, MC_SHP, MONI4, MU_PHASE, NBB,
$  NBNI8, NIAL, NITI2, R_PHASE, SIGMA
$ Generated by suh960 (pycalphad 0.8.4)
$$$$$$$$$$$$$$$$$$$$$$$$$$$$$$$$$$$$$$$$$$$$$$$$$$$$$$$$$$$$$$$$$$$$$$$$$$$$$$

ELEMENT /- ELECTRON_GAS 0.0 0.0 0.0 !
ELEMENT VA VACUUM 0.0 0.0 0.0 !
ELEMENT AL FCC_A1 26.982 4540.0 28.3 !
ELEMENT C GRAPHITE 12.011 1054.0 5.74 !
ELEMENT CR BCC_A2 51.996 4050.0 23.543 !
ELEMENT CU FCC_A1 6.3546E+01  5.0041E+03  3.3150E+01 !
ELEMENT FE BCC_A2 55.847 4489.0 27.28 !
ELEMENT MO BCC_A2 95.94 4589.0 28.56 !
ELEMENT NB BCC_A2 92.906 5220.0 36.27 !
ELEMENT NI FCC_A1 58.69 4787.0 29.796 !

FUNCTION GHSERCR 298.15 -1.47721E-6*T**3 + 0.00189435*T**2 - 26.908*T*LN(T) +
   157.48*T - 8856.94 + 139250*T**(-1); 2180.0 Y -50*T*LN(T) + 344.18*T -
   34869.344 - 2.88526E+32*T**(-9); 6000.0 N !
FUNCTION GHSERFE 298.15 -5.8927E-8*T**3 - 0.00439752*T**2 - 23.5143*T*LN(T) +
   124.134*T + 1225.7 + 77359*T**(-1); 1811.0 Y -46*T*LN(T) + 299.31255*T -
   25383.581 + 2.29603E+31*T**(-9); 6000.0 N !
FUNCTION GHSERMO 273.0 -1.309265E-10*T**4 + 5.662834E-7*T**3 -
   0.003443396*T**2 - 23.56414*T*LN(T) + 131.9197*T - 7746.302 +
   65812.39*T**(-1); 2896.0 Y -42.63829*T*LN(T) + 283.559746*T - 30556.41 -
   4.849315E+33*T**(-9); 6000.0 N !
 FUNCTION GHSERNB    2.98140E+02  -8519.353+142.045475*T-26.4711*T*LN(T)
     +2.03475E-04*T**2-3.5012E-07*T**3+93399*T**(-1);  2.75000E+03  Y
      -37669.3+271.720843*T-41.77*T*LN(T)+1.528238E+32*T**(-9);  6.00000E+03 
      N !
FUNCTION GHSERNI 273.0 -0.0048407*T**2 - 22.096*T*LN(T) + 117.854*T -
   5179.159; 1728.0 Y -43.1*T*LN(T) + 279.135*T - 27840.655 +
   1.12754E+31*T**(-9); 6000.0 N !
FUNCTION GHSERCC 298.15 -0.0004723*T**2 - 24.3*T*LN(T) + 170.73*T - 17368.441
   + 2562600*T**(-1) - 264300000.0*T**(-2) + 12000000000.0*T**(-3); 6000.0 N !

FUNCTION GCRFCC 1 0.163*T + GHSERCR# + 7284; 6000.0 N !
FUNCTION GCRHCP 298.15 GHSERCR# + 4438; 6000.0 N !
FUNCTION GFCCFE 298.15 0.00064*T**2 - 1.15*T*LN(T) + 8.282*T + GHSERFE# -
   1462.4; 1811.0 Y 0.94001*T + GHSERFE# - 1713.815 + 4.9251E+30*T**(-9);
   6000.0 N !
FUNCTION GHEXTNB 298.15 -3.50119E-7*T**3 + 0.000203475*T**2 - 26.4711*T*LN(T)
   + 142.048*T - 8519.35 + 93398.8*T**(-1); 6000.0 N !
FUNCTION GFCCCR 1 0.163*T + GHSERCR# + 7284; 6000.0 N !

FUNCTION GFEFCC 273.0 0.00064*T**2 - 1.15*T*LN(T) + 8.282*T + GHSERFE# -
   1462.4; 1811.0 Y -46*T*LN(T) + 300.25256*T - 27098.266 +
   2.78854E+31*T**(-9); 6000.0 N !
FUNCTION GFNBC 298.15 -0.0029287*T**2 - 46.34274*T*LN(T) + 283.912*T - 153054
   + 563374*T**(-1) - 1027881440.0*T**(-3); 6000.0 N !
FUNCTION GHCPMO 298.14 -1.30927E-10*T**4 + 5.66283E-7*T**3 - 0.003443396*T**2
   - 23.56414*T*LN(T) + 131.9197*T + 3803.698 + 65812*T**(-1); 2896.0 Y
   -42.63829*T*LN(T) + 283.559746*T - 19006.41 - 4.849315E+33*T**(-9); 5000.0
   N !

FUNCTION GMOFCC 298.15 0.63*T + GHSERMO# + 15200; 6000.0 N !
FUNCTION GNIBCC 298.15 -3.556*T + GHSERNI# + 8715.084; 6000.0 N !

FUNCTION ABF0AAA 298.15 -0.75*DGF0A3B# + 0.75*DGF1A3B#; 6000.0 N !
FUNCTION ABF0AAB 298.15 -0.25*DGF0A3B# - 0.5*DGF0AB# - 0.25*DGF1A3B# +
   0.5*DGF1AB#; 6000.0 N !
FUNCTION ABF0ABB 298.15 -0.5*DGF0AB# - 0.25*DGF0B3A# - 0.5*DGF1AB# +
   0.25*DGF1B3A#; 6000.0 N !
FUNCTION ABF0BBB 298.15 -0.75*DGF0B3A# - 0.75*DGF1B3A#; 6000.0 N !
FUNCTION ABF1AAA 298.15 -0.75*DGF1A3B#; 6000.0 N !
FUNCTION ABF1AAB 298.15 -0.25*DGF1A3B# - 0.5*DGF1AB#; 6000.0 N !
FUNCTION ABF1ABB 298.15 -0.5*DGF1AB# - 0.25*DGF1B3A#; 6000.0 N !
FUNCTION ABF1BBB 298.15 -0.75*DGF1B3A#; 6000.0 N !
FUNCTION BF0LAAA 298.15 -0.75*DBF0A3B# + 0.75*DBF1A3B#; 6000.0 N !
FUNCTION BF0LAAB 298.15 -0.25*DBF0A3B# - 0.5*DBF0AB# - 0.25*DBF1A3B# +
   0.5*DBF1AB#; 6000.0 N !
FUNCTION BF0LABB 298.15 -0.5*DBF0AB# - 0.25*DBF0B3A# - 0.5*DBF1AB# +
   0.25*DBF1B3A#; 6000.0 N !
FUNCTION BF0LBBB 298.15 -0.75*DBF0B3A# - 0.75*DBF1B3A#; 6000.0 N !
FUNCTION BF1LAAA 298.15 -0.75*DBF1A3B#; 6000.0 N !
FUNCTION BF1LAAB 298.15 -0.75*DBF1A3B#; 6000.0 N !
FUNCTION BF1LABB 298.15 -0.5*DBF1AB# - 0.25*DBF1B3A#; 6000.0 N !
FUNCTION BF1LBBB 298.15 -0.75*DBF1B3A#; 6000.0 N !
FUNCTION BLFAB0 298.15 10.186; 6000.0 N !
FUNCTION BLFAB1 298.15 8.834; 6000.0 N !
FUNCTION BLFAB2 298.15 -4.006; 6000.0 N !
FUNCTION BLFAB3 298.15 -24.828; 6000.0 N !
FUNCTION BLFAB4 298.15 -18.686; 6000.0 N !
FUNCTION BMAFCC 298.15 -2.1; 6000.0 N !
FUNCTION BMBFCC 298.15 0.62; 6000.0 N !
FUNCTION DBF0A3B 298.15 0.115; 6000.0 N !
FUNCTION DBF0AB 298.15 0.115; 6000.0 N !
FUNCTION DBF0B3A 298.15 0.115; 6000.0 N !
FUNCTION DBF1A3B 298.15 0.0; 6000.0 N !
FUNCTION DBF1AB 298.15 0.0; 6000.0 N !
FUNCTION DBF1B3A 298.15 0.0; 6000.0 N !
FUNCTION DGF0A3B 298.15 4470.65465; 6000.0 N !
FUNCTION DGF0AB 298.15 -1250; 6000.0 N !
FUNCTION DGF0B3A 298.15 -3236.01879; 6000.0 N !
FUNCTION DGF1A3B 298.15 0.0; 6000.0 N !
FUNCTION DGF1AB 298.15 0.0; 6000.0 N !
FUNCTION DGF1B3A 298.15 766.93282; 6000.0 N !

FUNCTION DTF0A3B 298.15 245; 6000.0 N !
FUNCTION DTF0AB 298.15 245; 6000.0 N !
FUNCTION DTF0B3A 298.15 245; 6000.0 N !
FUNCTION DTF1A3B 298.15 0.0; 6000.0 N !
FUNCTION DTF1AB 298.15 0.0; 6000.0 N !
FUNCTION DTF1B3A 298.15 0.0; 6000.0 N !


FUNCTION ACDIA 298.15 5.0E-9*T**2 + 2.43E-6*T; 6000.0 N !
FUNCTION BCDIA 298.15 8.5E-12*P + 1; 6000.0 N !
FUNCTION CCDIA 298.15 6.8E-12; 6000.0 N !
FUNCTION DCDIA 298.15 LN(BCDIA#); 6000.0 N !
FUNCTION DGLAV 298.15 5000; 6000.0 N !
FUNCTION ECDIA 298.15 LN(CCDIA#); 6000.0 N !
FUNCTION TF0LBBB 298.15 -0.75*DTF0B3A# - 0.75*DTF1B3A#; 6000.0 N !
FUNCTION TF1LAAA 298.15 -0.75*DTF1A3B#; 6000.0 N !
FUNCTION TF1LAAB 298.15 -0.25*DTF1A3B# - 0.5*DTF1AB#; 6000.0 N !
FUNCTION TF1LABB 298.15 -0.5*DTF1AB# - 0.25*DTF1B3A#; 6000.0 N !
FUNCTION TF1LBBB 298.15 -0.75*DTF1B3A#; 6000.0 N !
FUNCTION TLFAB0 298.15 2295.6; 6000.0 N !
FUNCTION TLFAB1 298.15 -448.8; 6000.0 N !
FUNCTION TLFAB2 298.15 -1186.0; 6000.0 N !
FUNCTION TLFAB3 298.15 -4367.6; 6000.0 N !
FUNCTION TLFAB4 298.15 -8658.1; 6000.0 N !
FUNCTION TLFAB5 298.15 -5671.0; 6000.0 N !
FUNCTION GLFAB0 298.15 2.36733*T - 15090.2618; 6000.0 N !
FUNCTION GLFAB1 298.15 7781.85057; 6000.0 N !
FUNCTION GLFAB2 298.15 -1649.56071; 6000.0 N !
FUNCTION TCAFCC 298.15 -201; 6000.0 N !
FUNCTION TCBFCC 298.15 625; 6000.0 N !
FUNCTION TF0LAAA 298.15 -0.75*DTF0A3B# + 0.75*DTF1A3B#; 6000.0 N !
FUNCTION TF0LAAB 298.15 -0.25*DTF0A3B# - 0.5*DTF0AB# - 0.25*DTF1A3B# +
   0.5*DTF1AB#; 6000.0 N !
FUNCTION TF0LABB 298.15 -0.5*DTF0AB# - 0.25*DTF0B3A# - 0.5*DTF1AB# +
   0.25*DTF1B3A#; 6000.0 N !
$Fe-Nb-NI
FUNCTION FF0001 1.0 0; 10000.0 N !
FUNCTION FF0002 1.0 0; 10000.0 N !
FUNCTION FF0004 1.0 0; 10000.0 N !
FUNCTION FF0005 298.15 -10000; 6000.0 N !
FUNCTION FF0006 1.0 0; 10000.0 N !
FUNCTION FF0008 1.0 213770.0; 10000.0 N !
FUNCTION FF0009 298.15 172401; 6000.0 N !
FUNCTION FF0012 298.15 349643; 6000.0 N !
FUNCTION FF0013 298.15 301487; 6000.0 N !
FUNCTION FF0016 298.15 457914; 6000.0 N !
FUNCTION FF0017 298.15 274720; 6000.0 N !
FUNCTION FF0019 298.15 -129558; 6000.0 N !
FUNCTION FF0020 298.15 514213; 6000.0 N !
FUNCTION FF0021 298.15 377103; 6000.0 N !
FUNCTION FF0023 298.15 68126.8; 6000.0 N !
FUNCTION FF0024 298.15 408532; 6000.0 N !
FUNCTION FF0025 298.15 383155; 6000.0 N !
FUNCTION FF0027 298.15 -143568; 6000.0 N !
FUNCTION FF0028 298.15 226816; 6000.0 N !
FUNCTION FF0029 298.15 206832; 6000.0 N !
FUNCTION FF0031 298.15 -38275.4; 6000.0 N !
FUNCTION FF0036 298.15 473468; 6000.0 N !
FUNCTION FF0037 298.15 335555; 6000.0 N !
FUNCTION FF0039 298.15 214322; 6000.0 N !
FUNCTION FF0109 1.0 -5000; 6000.0 N !
FUNCTION FF0110 1.0 0; 10000.0 N !
FUNCTION FF3051 298.15 -41.45; 6000.0 N !
FUNCTION FF3052 298.15 -12500; 6000.0 N !
FUNCTION FF3053 298.15 -30; 6000.0 N !
FUNCTION FF3054 298.15 100000; 6000.0 N !
FUNCTION FF3055 298.15 -108000; 6000.0 N !
FUNCTION FF3056 298.15 38.5; 6000.0 N !

FUNCTION FF2014 1.0 -131558.895591796; 10000.0 N !
FUNCTION FF2022 1.0 5953.28834236305; 10000.0 N !
FUNCTION FF2026 1.0 -134717.870286792; 10000.0 N !
FUNCTION FF2030 1.0 58906.3812678098; 10000.0 N !
FUNCTION FF2032 1.0 494327.670935803; 10000.0 N !
FUNCTION FF2033 1.0 493119.589916903; 10000.0 N !
FUNCTION FF2034 1.0 -150153.83446131; 10000.0 N !
FUNCTION FF2035 1.0 2269.70958689655; 10000.0 N !
FUNCTION FF2038 1.0 151270.719433344; 10000.0 N !
FUNCTION FF2114 1.0 -218623.740220968; 10000.0 N !
FUNCTION FF2116 1.0 -130.098044910099; 10000.0 N !
FUNCTION FF2117 1.0 -137115.794321021; 10000.0 N !
FUNCTION FF2119 1.0 -134.246250078871; 10000.0 N !
FUNCTION FF2123 1.0 -242166.471446692; 10000.0 N !
FUNCTION FF2125 1.0 -164.026869601384; 10000.0 N !
FUNCTION FF2265 1.0 -136819.389731292; 10000.0 N !
FUNCTION FF2267 1.0 -661388.244132556; 10000.0 N !
FUNCTION FF2307 1.0 -129712.630565805; 10000.0 N !
FUNCTION FF2309 1.0 8.8536863815839; 10000.0 N !
FUNCTION FF2328 1.0 -206234.534811725; 10000.0 N !
FUNCTION FF2330 1.0 -83.8149404986018; 10000.0 N !
FUNCTION FF2333 1.0 -277160.551672838; 10000.0 N !
FUNCTION FF2345 1.0 -84877.6174839229; 10000.0 N !
FUNCTION FF2347 1.0 93921.089630206; 10000.0 N !
FUNCTION FF2367 1.0 -143276.639444082; 10000.0 N !
FUNCTION FF2467 1.0 -254956.646403948; 10000.0 N !
FUNCTION FF2468 1.0 -453346.795238934; 10000.0 N !
FUNCTION FF2469 1.0 -43613.1051073698; 10000.0 N !
FUNCTION FF3046 298.15 -2.31498; 6000.0 N !
FUNCTION FF3048 298.15 -17.01069; 6000.0 N !
FUNCTION FF3049 298.15 -21000; 6000.0 N !

$Cr-Fe-Mo

FUNCTION FF440001 1 266624; 6000.0 N !
FUNCTION FF440002 1 366900; 6000.0 N !
FUNCTION FF440003 1 153690; 6000.0 N !
FUNCTION FF440004 1 150139; 6000.0 N !
FUNCTION FF440005 1 214140; 6000.0 N !
FUNCTION FF440006 1 658298; 6000.0 N !
FUNCTION FF440007 1 635781; 6000.0 N !
FUNCTION FF440008 1 683915; 6000.0 N !
FUNCTION FF440009 1 279354; 6000.0 N !
FUNCTION FF440010 1 247279; 6000.0 N !
FUNCTION FF440011 1 340819; 6000.0 N !
FUNCTION FF440012 1 189058; 6000.0 N !
FUNCTION FF440013 1 227349; 6000.0 N !
FUNCTION FF440014 1 280865; 6000.0 N !
FUNCTION FF440015 1 604346; 6000.0 N !
FUNCTION FF440016 1 586421; 6000.0 N !
FUNCTION FF440017 1 631758; 6000.0 N !
FUNCTION FF440018 1 337416; 6000.0 N !
FUNCTION FF440019 1 313056; 6000.0 N !
FUNCTION FF440020 1 390779; 6000.0 N !
FUNCTION FF440021 1 168400; 6000.0 N !
FUNCTION FF440022 1 181180; 6000.0 N !
FUNCTION FF440023 1 206975; 6000.0 N !
FUNCTION FF440024 1 630663; 6000.0 N !
FUNCTION FF440025 1 606942; 6000.0 N !
FUNCTION FF440026 1 652592; 6000.0 N !
FUNCTION FF440027 1 310661; 6000.0 N !
FUNCTION FF440028 1 276467; 6000.0 N !
FUNCTION FF440029 1 365717; 6000.0 N !
FUNCTION FF440030 1 154853; 6000.0 N !
FUNCTION FF440031 1 150097; 6000.0 N !
FUNCTION FF440032 1 195660; 6000.0 N !
FUNCTION FF440033 1 671050; 6000.0 N !
FUNCTION FF440034 1 622344; 6000.0 N !
FUNCTION FF440035 1 702977; 6000.0 N !
FUNCTION FF440036 1 276653; 6000.0 N !
FUNCTION FF440037 1 244253; 6000.0 N !
FUNCTION FF440038 1 340891; 6000.0 N !
FUNCTION FF440039 1 216310; 6000.0 N !
FUNCTION FF440040 1 202636; 6000.0 N !
FUNCTION FF440041 1 260817; 6000.0 N !
FUNCTION FF440042 1 629040; 6000.0 N !
FUNCTION FF440043 1 590982; 6000.0 N !
FUNCTION FF440044 1 668266; 6000.0 N !
FUNCTION FF440045 1 350996; 6000.0 N !
FUNCTION FF440046 1 315874; 6000.0 N !
FUNCTION FF440047 1 392406; 6000.0 N !
FUNCTION FF440048 1 168384; 6000.0 N !
FUNCTION FF440049 1 168382; 6000.0 N !
FUNCTION FF440050 1 192434; 6000.0 N !
FUNCTION FF440051 1 652897; 6000.0 N !
FUNCTION FF440052 1 610312; 6000.0 N !
FUNCTION FF440053 1 685915; 6000.0 N !
FUNCTION FF440054 1 222936; 6000.0 N !
FUNCTION FF440055 1 180025; 6000.0 N !
FUNCTION FF440056 1 291702; 6000.0 N !
FUNCTION FF440057 1 79570.8; 6000.0 N !
FUNCTION FF440058 1 73435.3; 6000.0 N !
FUNCTION FF440059 1 138779; 6000.0 N !
FUNCTION FF440060 1 559004; 6000.0 N !
FUNCTION FF440061 1 526203; 6000.0 N !
FUNCTION FF440062 1 579040; 6000.0 N !
FUNCTION FF440063 1 196768; 6000.0 N !
FUNCTION FF440064 1 172319; 6000.0 N !
FUNCTION FF440065 1 262397; 6000.0 N !
FUNCTION FF440066 1 140125; 6000.0 N !
FUNCTION FF440067 1 119176; 6000.0 N !
FUNCTION FF440068 1 192133; 6000.0 N !
FUNCTION FF440069 1 525799; 6000.0 N !
FUNCTION FF440070 1 489636; 6000.0 N !
FUNCTION FF440071 1 538084; 6000.0 N !
FUNCTION FF440072 1 237333; 6000.0 N !
FUNCTION FF440074 1 287158; 6000.0 N !
FUNCTION FF440075 1 86717.4; 6000.0 N !
FUNCTION FF440076 1 87016.5; 6000.0 N !
FUNCTION FF440077 1 127700; 6000.0 N !
FUNCTION FF440078 1 516406; 6000.0 N !
FUNCTION FF440079 1 490226; 6000.0 N !
FUNCTION FF440080 1 547843; 6000.0 N !
FUNCTION FF440081 1 328146; 6000.0 N !
FUNCTION FF440082 1 279427; 6000.0 N !
FUNCTION FF440083 1 386287; 6000.0 N !
FUNCTION FF440084 1 154477; 6000.0 N !
FUNCTION FF440085 1 145970; 6000.0 N !
FUNCTION FF440086 1 237616; 6000.0 N !
FUNCTION FF440087 1 638175; 6000.0 N !
FUNCTION FF440088 1 618970; 6000.0 N !
FUNCTION FF440089 1 668007; 6000.0 N !
FUNCTION FF440090 1 252608; 6000.0 N !
FUNCTION FF440091 1 219944; 6000.0 N !
FUNCTION FF440092 1 322590; 6000.0 N !
FUNCTION FF440093 1 197608; 6000.0 N !
FUNCTION FF440094 1 180748; 6000.0 N !
FUNCTION FF440095 1 274501; 6000.0 N !
FUNCTION FF440096 1 563766; 6000.0 N !
FUNCTION FF440097 1 547571; 6000.0 N !
FUNCTION FF440098 1 594325; 6000.0 N !
FUNCTION FF440099 1 333674; 6000.0 N !
FUNCTION FF440100 1 306128; 6000.0 N !
FUNCTION FF440101 1 393459; 6000.0 N !
FUNCTION FF440102 1 150548; 6000.0 N !
FUNCTION FF440103 1 136222; 6000.0 N !
FUNCTION FF440104 1 205955; 6000.0 N !
FUNCTION FF440105 1 610251; 6000.0 N !
FUNCTION FF440106 1 586016; 6000.0 N !
FUNCTION FF440107 1 630965; 6000.0 N !
FUNCTION FF440108 1 334376; 6000.0 N !
FUNCTION FF440109 1 293521; 6000.0 N !
FUNCTION FF440110 1 388755; 6000.0 N !
FUNCTION FF440111 1 145379; 6000.0 N !
FUNCTION FF440112 1 152213; 6000.0 N !
FUNCTION FF440113 1 187867; 6000.0 N !
FUNCTION FF440114 1 643163; 6000.0 N !
FUNCTION FF440115 1 609772; 6000.0 N !
FUNCTION FF440116 1 678627; 6000.0 N !
FUNCTION FF440117 1 253256; 6000.0 N !
FUNCTION FF440118 1 222474; 6000.0 N !
FUNCTION FF440119 1 313957; 6000.0 N !
FUNCTION FF440120 1 144572; 6000.0 N !
FUNCTION FF440121 1 590328; 6000.0 N !
FUNCTION FF440122 1 361466; 6000.0 N !
FUNCTION FF440123 1 319345; 6000.0 N !
FUNCTION FF440124 1 403414; 6000.0 N !
FUNCTION FF440125 1 122322; 6000.0 N !
FUNCTION FF440126 1 622565; 6000.0 N !
FUNCTION FF440127 1 219282; 6000.0 N !
FUNCTION FF440128 1 176960; 6000.0 N !
FUNCTION FF440129 1 287772; 6000.0 N !
FUNCTION FF440130 1 98619.7; 6000.0 N !
FUNCTION FF440131 1 93701; 6000.0 N !
FUNCTION FF440132 1 154717; 6000.0 N !
FUNCTION FF440133 1 513909; 6000.0 N !
FUNCTION FF440134 1 496221; 6000.0 N !
FUNCTION FF440135 1 541784; 6000.0 N !
FUNCTION FF440136 1 167275; 6000.0 N !
FUNCTION FF440137 1 132542; 6000.0 N !
FUNCTION FF440138 1 239854; 6000.0 N !
FUNCTION FF440139 1 114470; 6000.0 N !
FUNCTION FF440140 1 464799; 6000.0 N !
FUNCTION FF440141 1 224058; 6000.0 N !
FUNCTION FF440142 1 188121; 6000.0 N !
FUNCTION FF440143 1 279491; 6000.0 N !
FUNCTION FF440144 1 73706.5; 6000.0 N !
FUNCTION FF440145 1 475838; 6000.0 N !
FUNCTION FF440146 1 228819; 6000.0 N !
FUNCTION FF440147 1 204396; 6000.0 N !
FUNCTION FF440148 1 290473; 6000.0 N !
FUNCTION FF440149 1 109661; 6000.0 N !
FUNCTION FF440150 1 124510; 6000.0 N !
FUNCTION FF440151 1 164002; 6000.0 N !
FUNCTION FF440152 1 535022; 6000.0 N !
FUNCTION FF440153 1 506385; 6000.0 N !
FUNCTION FF440154 1 561857; 6000.0 N !
FUNCTION FF440155 1 216473; 6000.0 N !
FUNCTION FF440156 1 190670; 6000.0 N !
FUNCTION FF440157 1 277223; 6000.0 N !
FUNCTION FF440158 1 142131; 6000.0 N !
FUNCTION FF440159 1 117972; 6000.0 N !
FUNCTION FF440160 1 221182; 6000.0 N !
FUNCTION FF440161 1 502294; 6000.0 N !
FUNCTION FF440162 1 483189; 6000.0 N !
FUNCTION FF440163 1 530520; 6000.0 N !
FUNCTION FF440164 1 225116; 6000.0 N !
FUNCTION FF440165 1 207190; 6000.0 N !
FUNCTION FF440166 1 274553; 6000.0 N !
FUNCTION FF440167 1 85061.7; 6000.0 N !
FUNCTION FF440168 1 110271; 6000.0 N !
FUNCTION FF440169 1 124063; 6000.0 N !
FUNCTION FF440170 1 487180; 6000.0 N !
FUNCTION FF440171 1 461127; 6000.0 N !
FUNCTION FF440172 1 509211; 6000.0 N !
FUNCTION FF440173 1 247843; 6000.0 N !
FUNCTION FF440174 1 214037; 6000.0 N !
FUNCTION FF440175 1 299123; 6000.0 N !
FUNCTION FF440176 1 111200; 6000.0 N !
FUNCTION FF440177 1 114159; 6000.0 N !
FUNCTION FF440178 1 146526; 6000.0 N !
FUNCTION FF440179 1 554886; 6000.0 N !
FUNCTION FF440180 1 501389; 6000.0 N !
FUNCTION FF440181 1 586500; 6000.0 N !
FUNCTION FF440182 1 229802; 6000.0 N !
FUNCTION FF440183 1 191920; 6000.0 N !
FUNCTION FF440184 1 289813; 6000.0 N !
FUNCTION FF440185 1 138603; 6000.0 N !
FUNCTION FF440186 1 529483; 6000.0 N !
FUNCTION FF440187 1 245494; 6000.0 N !
FUNCTION FF440188 1 213721; 6000.0 N !
FUNCTION FF440189 1 284244; 6000.0 N !
FUNCTION FF440190 1 81407.9; 6000.0 N !
FUNCTION FF440191 1 504059; 6000.0 N !
FUNCTION FF440192 1 144489; 6000.0 N !
FUNCTION FF440194 1 208727; 6000.0 N !
FUNCTION FF440195 1 13754.8; 6000.0 N !
FUNCTION FF440197 1 69638.7; 6000.0 N !
FUNCTION FF440198 1 437761; 6000.0 N !
FUNCTION FF440199 1 399917; 6000.0 N !
FUNCTION FF440200 1 455652; 6000.0 N !
FUNCTION FF440201 1 132394; 6000.0 N !
FUNCTION FF440202 1 104948; 6000.0 N !
FUNCTION FF440203 1 192028; 6000.0 N !
FUNCTION FF440204 1 45146.1; 6000.0 N !
FUNCTION FF440205 1 402085; 6000.0 N !
FUNCTION FF440206 1 124493; 6000.0 N !
FUNCTION FF440207 1 93923.8; 6000.0 N !
FUNCTION FF440208 1 169979; 6000.0 N !
FUNCTION FF440209 1 -13353.5; 6000.0 N !
FUNCTION FF440210 1 376711; 6000.0 N !
FUNCTION FF440212 1 413228; 6000.0 N !
FUNCTION FF440213 1 355379; 6000.0 N !
FUNCTION FF440214 1 230101; 6000.0 N !
FUNCTION FF440215 1 482732; 6000.0 N !
FUNCTION FF440216 1 438265; 6000.0 N !
FUNCTION FF440217 1 518208; 6000.0 N !
FUNCTION FF440218 1 143697; 6000.0 N !
FUNCTION FF440219 1 97376.1; 6000.0 N !
FUNCTION FF440220 1 45975.8; 6000.0 N !
FUNCTION FF440221 1 199947; 6000.0 N !
FUNCTION FF440222 1 332201; 6000.0 N !
FUNCTION FF440223 1 290641; 6000.0 N !
FUNCTION FF440225 1 392494; 6000.0 N !
FUNCTION FF440226 1 369895; 6000.0 N !
FUNCTION FF440227 1 436031; 6000.0 N !
FUNCTION FF440228 1 288498; 6000.0 N !
FUNCTION FF440229 1 163163; 6000.0 N !
FUNCTION FF440230 1 410136; 6000.0 N !
FUNCTION FF440231 1 371008; 6000.0 N !
FUNCTION FF440232 1 438635; 6000.0 N !
FUNCTION FF440233 1 200566; 6000.0 N !
FUNCTION FF440234 1 170426; 6000.0 N !
FUNCTION FF440235 1 270950; 6000.0 N !
FUNCTION FF440236 1 125060; 6000.0 N !
FUNCTION FF440237 1 118236; 6000.0 N !
FUNCTION FF440238 1 184893; 6000.0 N !
FUNCTION FF440239 1 329920; 6000.0 N !
FUNCTION FF440240 1 306756; 6000.0 N !
FUNCTION FF440241 1 371416; 6000.0 N !
FUNCTION FF440242 1 298083; 6000.0 N !
FUNCTION FF440243 1 248462; 6000.0 N !
FUNCTION FF440244 1 227874; 6000.0 N !
FUNCTION FF440245 1 301232; 6000.0 N !
FUNCTION FF440246 1 452866; 6000.0 N !
FUNCTION FF440247 1 361437; 6000.0 N !
FUNCTION FF440248 1 332194; 6000.0 N !
FUNCTION FF440249 1 400559; 6000.0 N !
FUNCTION FF440250 1 267319; 6000.0 N !
FUNCTION FF440251 1 303855; 6000.0 N !
FUNCTION FF440252 1 319149; 6000.0 N !
FUNCTION FF440253 1 495292; 6000.0 N !
FUNCTION FF440254 1 457959; 6000.0 N !
FUNCTION FF440255 1 530695; 6000.0 N !
FUNCTION FF440256 1 203351; 6000.0 N !
FUNCTION FF440257 1 166755; 6000.0 N !
FUNCTION FF440258 1 137209; 6000.0 N !
FUNCTION FF440259 1 218599; 6000.0 N !
FUNCTION FF440260 1 308434; 6000.0 N !
FUNCTION FF440261 1 286054; 6000.0 N !
FUNCTION FF440262 1 254979; 6000.0 N !
FUNCTION FF440263 1 365416; 6000.0 N !
FUNCTION FF440264 1 349561; 6000.0 N !
FUNCTION FF440265 1 429489; 6000.0 N !
FUNCTION FF440266 1 272796; 6000.0 N !
FUNCTION FF440267 1 229607; 6000.0 N !
FUNCTION FF440268 1 364228; 6000.0 N !
FUNCTION FF440269 1 341947; 6000.0 N !
FUNCTION FF440270 1 418185; 6000.0 N !
FUNCTION FF440271 1 201579; 6000.0 N !
FUNCTION FF440272 1 141510; 6000.0 N !
FUNCTION FF440273 1 265363; 6000.0 N !
FUNCTION FF440274 1 156596; 6000.0 N !
FUNCTION FF440275 1 94312.7; 6000.0 N !
FUNCTION FF440276 1 199077; 6000.0 N !
FUNCTION FF440277 1 288398; 6000.0 N !
FUNCTION FF440278 1 263975; 6000.0 N !
FUNCTION FF440279 1 344034; 6000.0 N !
FUNCTION FF440280 1 284749; 6000.0 N !
FUNCTION FF440281 1 205741; 6000.0 N !
FUNCTION FF440282 1 323154; 6000.0 N !
FUNCTION FF440283 1 292507; 6000.0 N !
FUNCTION FF440284 1 373058; 6000.0 N !
FUNCTION FF440285 1 250303; 6000.0 N !
FUNCTION FF440286 1 292340; 6000.0 N !
FUNCTION FF440287 1 152312; 6000.0 N !
FUNCTION FF440288 1 132752; 6000.0 N !
FUNCTION FF440289 1 242075; 6000.0 N !
FUNCTION FF440290 1 110398; 6000.0 N !
FUNCTION FF440291 1 248162; 6000.0 N !
FUNCTION FF440292 1 318409; 6000.0 N !
FUNCTION FF440293 1 294449; 6000.0 N !
FUNCTION FF440294 1 384204; 6000.0 N !
FUNCTION FF440295 1 266898; 6000.0 N !
FUNCTION FF440296 1 226526; 6000.0 N !
FUNCTION FF440297 1 318786; 6000.0 N !
FUNCTION FF440298 1 411841; 6000.0 N !
FUNCTION FF440299 1 393526; 6000.0 N !
FUNCTION FF440300 1 444712; 6000.0 N !
FUNCTION FF440301 1 314905; 6000.0 N !
FUNCTION FF440302 1 295084; 6000.0 N !
FUNCTION FF440303 1 352016; 6000.0 N !
FUNCTION FF440304 1 225940; 6000.0 N !
FUNCTION FF440305 1 398352; 6000.0 N !
FUNCTION FF440306 1 232331; 6000.0 N !
FUNCTION FF440307 1 214638; 6000.0 N !
FUNCTION FF440308 1 289790; 6000.0 N !
FUNCTION FF440309 1 196914; 6000.0 N !
FUNCTION FF440310 1 293678; 6000.0 N !
FUNCTION FF440311 1 218180; 6000.0 N !
FUNCTION FF440312 1 134794; 6000.0 N !
FUNCTION FF440313 1 124308; 6000.0 N !
FUNCTION FF440315 1 394425; 6000.0 N !
FUNCTION FF440316 1 274803; 6000.0 N !
FUNCTION FF440317 1 254273; 6000.0 N !
FUNCTION FF440318 1 318224; 6000.0 N !
FUNCTION FF440319 1 144272; 6000.0 N !
FUNCTION FF440320 1 143295; 6000.0 N !
FUNCTION FF440321 1 177968; 6000.0 N !
FUNCTION FF440322 1 545845; 6000.0 N !
FUNCTION FF440323 1 418203; 6000.0 N !
FUNCTION FF440324 1 485034; 6000.0 N !
FUNCTION FF440325 1 181931; 6000.0 N !
FUNCTION FF440326 1 131919; 6000.0 N !
FUNCTION FF440327 1 111201; 6000.0 N !
FUNCTION FF440328 1 170564; 6000.0 N !
FUNCTION FF440329 1 313500; 6000.0 N !
FUNCTION FF440330 1 209227; 6000.0 N !
FUNCTION FF440331 1 197786; 6000.0 N !
FUNCTION FF440332 1 260912; 6000.0 N !
FUNCTION FF440333 1 129784; 6000.0 N !
FUNCTION FF440334 1 145552; 6000.0 N !
FUNCTION FF440335 1 173147; 6000.0 N !
FUNCTION FF440336 1 363155; 6000.0 N !
FUNCTION FF440337 1 351613; 6000.0 N !
FUNCTION FF440338 1 394882; 6000.0 N !
FUNCTION FF440339 1 264034; 6000.0 N !
FUNCTION FF440340 1 205687; 6000.0 N !
FUNCTION FF440341 1 262835; 6000.0 N !
FUNCTION FF440342 1 104919; 6000.0 N !
FUNCTION FF440343 1 381969; 6000.0 N !
FUNCTION FF440344 1 205933; 6000.0 N !
FUNCTION FF440345 1 186257; 6000.0 N !
FUNCTION FF440346 1 251886; 6000.0 N !
FUNCTION FF440347 1 136983; 6000.0 N !
FUNCTION FF440348 1 295053; 6000.0 N !
FUNCTION FF440349 1 230797; 6000.0 N !
FUNCTION FF440350 1 169004; 6000.0 N !
FUNCTION FF440351 1 160038; 6000.0 N !
FUNCTION FF440353 1 340338; 6000.0 N !
FUNCTION FF440354 1 285062; 6000.0 N !
FUNCTION FF440355 1 264011; 6000.0 N !
FUNCTION FF440356 1 315414; 6000.0 N !
FUNCTION FF440357 1 183433; 6000.0 N !
FUNCTION FF440358 1 420841; 6000.0 N !
FUNCTION FF440359 1 139972; 6000.0 N !
FUNCTION FF440360 1 90582.6; 6000.0 N !


FUNCTION FF6101 1 3.2; 6000.0 N !
FUNCTION FF6102 1 -5.28471059; 6000.0 N !
FUNCTION FF6103 1 -37.584096; 6000.0 N !
FUNCTION FF6202 1 1.98023332; 6000.0 N !
FUNCTION FF6211 1 -193424.319; 6000.0 N !

FUNCTION FF6243 1 -32581.393; 6000.0 N !
FUNCTION FF7000 1 138822; 6000.0 N !
FUNCTION FF710000 1 -4.39974024; 6000.0 N !
FUNCTION FF710001 1 15715.8196; 6000.0 N !
FUNCTION FF710002 1 32511.419; 6000.0 N !
FUNCTION FF710003 1 -14.5279894; 6000.0 N !
FUNCTION FF710004 1 26971.8927; 6000.0 N !
FUNCTION FF710005 1 -0.0393784511; 6000.0 N !
FUNCTION FF710006 1 440.717764; 6000.0 N !
FUNCTION FF710007 1 -0.10235277; 6000.0 N !
FUNCTION FF710008 1 805.363501; 6000.0 N !
FUNCTION FF710009 1 -1.38826707; 6000.0 N !
FUNCTION FF710010 1 -242.889264; 6000.0 N !
FUNCTION FF710011 1 -2242.88926; 6000.0 N !

FUNCTION FF71007 1 199174.5; 6000.0 N !
FUNCTION FF71008 1 -68.625; 6000.0 N !

FUNCTION FF711003 1 -18.1802821; 6000.0 N !
FUNCTION FF75003 1 174634; 6000.0 N !
FUNCTION FF75004 1 100858; 6000.0 N !
FUNCTION FF75005 1 34726; 6000.0 N !
FUNCTION FF75006 1 -324427; 6000.0 N !
FUNCTION FF75007 1 -0.0193835; 6000.0 N !
FUNCTION FF75008 1 -1.70054E-7; 6000.0 N !
FUNCTION FF75009 1 -2.89208; 6000.0 N !
FUNCTION FF75010 1 -3.0411; 6000.0 N !
FUNCTION FF75011 1 257425; 6000.0 N !
FUNCTION FF75012 1 221033; 6000.0 N !
FUNCTION FF75013 1 132017; 6000.0 N !
FUNCTION FF75014 1 121296; 6000.0 N !
FUNCTION FF75015 1 -416673; 6000.0 N !
FUNCTION FF75016 1 -0.0181379; 6000.0 N !
FUNCTION FF75017 1 -1.1859E-6; 6000.0 N !
FUNCTION FF75018 1 1.62404; 6000.0 N !
FUNCTION FF75019 1 -88.0315; 6000.0 N !
FUNCTION FF75020 1 238580; 6000.0 N !
FUNCTION FF75021 1 202116; 6000.0 N !
FUNCTION FF75022 1 124095; 6000.0 N !
FUNCTION FF75023 1 -458343; 6000.0 N !
FUNCTION FF75024 1 -0.0145568; 6000.0 N !
FUNCTION FF75025 1 3.5229E-7; 6000.0 N !
FUNCTION FF75026 1 1.15777; 6000.0 N !
FUNCTION FF75027 1 -47.8838; 6000.0 N !
FUNCTION FF75028 1 170621; 6000.0 N !
FUNCTION FF75029 1 266656; 6000.0 N !
FUNCTION FF75030 1 252292; 6000.0 N !
FUNCTION FF75031 1 156662; 6000.0 N !
FUNCTION FF75032 1 189247; 6000.0 N !
FUNCTION FF75033 1 204077; 6000.0 N !
FUNCTION FF75034 1 180827; 6000.0 N !
FUNCTION FF75035 1 180872; 6000.0 N !
FUNCTION FF75036 1 -311457; 6000.0 N !
FUNCTION FF75037 1 -0.012808; 6000.0 N !
FUNCTION FF75038 1 3.42862E-7; 6000.0 N !
FUNCTION FF75039 1 -0.396308; 6000.0 N !
FUNCTION FF75040 1 -47.5313; 6000.0 N !
FUNCTION FF75041 1 9690; 6000.0 N !
FUNCTION FF75042 1 -372601; 6000.0 N !
FUNCTION FF75043 1 -0.0138963; 6000.0 N !
FUNCTION FF75044 1 1.56492E-6; 6000.0 N !
FUNCTION FF75045 1 0.42607; 6000.0 N !
FUNCTION FF75046 1 -43.226; 6000.0 N !
FUNCTION FF75047 1 195587; 6000.0 N !
FUNCTION FF75048 1 -513128; 6000.0 N !
FUNCTION FF75049 1 -0.0108944; 6000.0 N !
FUNCTION FF75050 1 -1.27815; 6000.0 N !
FUNCTION FF75051 1 -75.8413; 6000.0 N !
FUNCTION FF75052 1 171194; 6000.0 N !
FUNCTION FF75053 1 -529281; 6000.0 N !
FUNCTION FF75054 1 -0.0103483; 6000.0 N !
FUNCTION FF75055 1 3.11524E-7; 6000.0 N !
FUNCTION FF75056 1 -1.08312; 6000.0 N !
FUNCTION FF75057 1 -120.9428; 6000.0 N !
FUNCTION FF75058 1 168428; 6000.0 N !
FUNCTION FF75059 1 156582; 6000.0 N !
FUNCTION FF75060 1 232037; 6000.0 N !
FUNCTION FF75061 1 153119; 6000.0 N !
FUNCTION FF75062 1 -471181; 6000.0 N !
FUNCTION FF75063 1 -0.00794886; 6000.0 N !
FUNCTION FF75064 1 1.9299E-6; 6000.0 N !
FUNCTION FF75065 1 -0.390421; 6000.0 N !
FUNCTION FF75066 1 -74.9698; 6000.0 N !
FUNCTION FF75067 1 234669; 6000.0 N !
FUNCTION FF75068 1 220102; 6000.0 N !
FUNCTION FF75069 1 162637; 6000.0 N !
FUNCTION FF75070 1 -528983; 6000.0 N !
FUNCTION FF75071 1 -0.00800799; 6000.0 N !
FUNCTION FF75072 1 1.30416E-6; 6000.0 N !
FUNCTION FF75073 1 0.221446; 6000.0 N !
FUNCTION FF75074 1 -90.7; 6000.0 N !
FUNCTION FF75075 1 235661; 6000.0 N !
FUNCTION FF75076 1 260603; 6000.0 N !

$Cr-Fe-Nb

FUNCTION FF20198 298.15 -9087.01; 6000.0 N !
FUNCTION FF5001 298.15 252230; 6000.0 N !
FUNCTION FF5002 298.15 114122; 6000.0 N !
FUNCTION FF5003 298.15 482162; 6000.0 N !
FUNCTION FF5004 298.15 -86255.6; 6000.0 N !
FUNCTION FF5005 298.15 62514.3; 6000.0 N !
FUNCTION FF5006 298.15 -25309.8; 6000.0 N !
FUNCTION FF5007 298.15 93811.9; 6000.0 N !
FUNCTION FF5008 298.15 149500; 6000.0 N !
FUNCTION FF5009 298.15 191808; 6000.0 N !
FUNCTION FF5010 298.15 559749; 6000.0 N !
FUNCTION FF5011 298.15 656143; 6000.0 N !
FUNCTION FF5012 298.15 124240; 6000.0 N !
FUNCTION FF5013 298.15 125395; 6000.0 N !
FUNCTION FF5014 298.15 627019; 6000.0 N !
FUNCTION FF5015 298.15 765633; 6000.0 N !
FUNCTION FF5016 298.15 11315.7; 6000.0 N !
FUNCTION FF5017 298.15 111698; 6000.0 N !
FUNCTION FF5018 298.15 374604; 6000.0 N !
FUNCTION FF5019 298.15 394887; 6000.0 N !
FUNCTION FF5020 298.15 -18020.4; 6000.0 N !
FUNCTION FF5021 298.15 40017; 6000.0 N !
FUNCTION FF5022 298.15 417440; 6000.0 N !
FUNCTION FF5023 298.15 437585; 6000.0 N !
FUNCTION FF5024 298.15 82911.1; 6000.0 N !
FUNCTION FF5025 298.15 120140; 6000.0 N !
FUNCTION FF5026 298.15 496108; 6000.0 N !
FUNCTION FF5027 298.15 591323; 6000.0 N !
FUNCTION FF5028 298.15 -6092.03; 6000.0 N !
FUNCTION FF5029 298.15 -19248.7; 6000.0 N !
FUNCTION FF5030 298.15 366014; 6000.0 N !
FUNCTION FF5031 298.15 479692; 6000.0 N !
FUNCTION FF5032 298.15 -107364; 6000.0 N !
FUNCTION FF5033 298.15 -20164.3; 6000.0 N !
FUNCTION FF5034 298.15 341844; 6000.0 N !
FUNCTION FF5035 298.15 371923; 6000.0 N !
FUNCTION FF5036 298.15 -157271; 6000.0 N !
FUNCTION FF5037 298.15 -84357; 6000.0 N !
FUNCTION FF5038 298.15 183365; 6000.0 N !
FUNCTION FF5039 298.15 -18; 6000.0 N !

FUNCTION FF660000 1.0 233124.0; 10000.0 N !
FUNCTION FF660001 1.0 761778.0; 10000.0 N !
FUNCTION FF660002 1.0 377326.0; 10000.0 N !
FUNCTION FF660003 1.0 295195.0; 10000.0 N !
FUNCTION FF660004 1.0 731661.0; 10000.0 N !
FUNCTION FF660005 1.0 679467.0; 10000.0 N !
FUNCTION FF660006 1.0 762503.0; 10000.0 N !
FUNCTION FF660007 1.0 352241.0; 10000.0 N !
FUNCTION FF660008 1.0 189448.0; 10000.0 N !
FUNCTION FF660009 1.0 206229.0; 10000.0 N !
FUNCTION FF660010 1.0 238089.0; 10000.0 N !
FUNCTION FF660011 1.0 694408.0; 10000.0 N !
FUNCTION FF660012 1.0 398248.0; 10000.0 N !
FUNCTION FF660013 1.0 183262.0; 10000.0 N !
FUNCTION FF660014 1.0 781557.0; 10000.0 N !
FUNCTION FF660015 1.0 716356.0; 10000.0 N !
FUNCTION FF660016 1.0 820401.0; 10000.0 N !
FUNCTION FF660017 1.0 361932.0; 10000.0 N !
FUNCTION FF660018 1.0 248318.0; 10000.0 N !
FUNCTION FF660019 1.0 689023.0; 10000.0 N !
FUNCTION FF660020 1.0 637620.0; 10000.0 N !
FUNCTION FF660021 1.0 735732.0; 10000.0 N !
FUNCTION FF660022 1.0 398033.0; 10000.0 N !