
$ Database file written 2023-11- 8
$ From database: USER                    
 ELEMENT /-   ELECTRON_GAS              0.0000E+00  0.0000E+00  0.0000E+00!
 ELEMENT VA   VACUUM                    0.0000E+00  0.0000E+00  0.0000E+00!
 ELEMENT CR   BCC_A2                    5.1996E+01  4.0500E+03  2.3543E+01!
 ELEMENT CU   FCC_A1                    6.3546E+01  5.0041E+03  3.3150E+01!
 ELEMENT FE   BCC_A2                    5.5847E+01  4.4890E+03  2.7280E+01!
 ELEMENT NI   FCC_A1                    5.8690E+01  4.7870E+03  2.9796E+01!
 
 
 FUNCTION GHSERCR   298.15 -1.47721E-06*T**3+.00189435*T**2-26.908*T*LN(T)
     +157.48*T-8856.94+139250*T**(-1); 2180 Y
      -50*T*LN(T)+344.18*T-34869.344-2.88526E+32*T**(-9); 6000 N !
 FUNCTION FF71008   298.15 -68.625; 6000 N !
 FUNCTION FF71007   298.15 +199174.5; 6000 N !
 FUNCTION FF40000   298.15 +107708; 6000 N !
 FUNCTION GBCCCU    298.15 +4017-1.255*T+GHSERCU#; 3200 N !
 FUNCTION GHSERCU   298.15 -7770.458+130.485235*T-24.112392*T*LN(T)
     -.00265684*T**2+1.29223E-07*T**3+52478*T**(-1); 1357.77 Y
      -13542.026+183.803828*T-31.38*T*LN(T)+3.64167E+29*T**(-9); 3200 N !
 FUNCTION GLIQCU    298.15 +12964.735-9.511904*T-5.8489E-21*T**7+GHSERCU#; 
     1357.77 Y
      -46.545+173.881484*T-31.38*T*LN(T); 3200 N !
 FUNCTION GHSERFE   298.15 -5.8927E-08*T**3-.00439752*T**2-23.5143*T*LN(T)
     +124.134*T+1225.7+77359*T**(-1); 1811 Y
      -46*T*LN(T)+299.31255*T-25383.581+2.29603E+31*T**(-9); 6000 N !
 FUNCTION GFCCFE    298.15 +6.4E-04*T**2-1.15*T*LN(T)+8.282*T+GHSERFE#
     -1462.4; 1811 Y
      +.94001*T+GHSERFE#-1713.815+4.9251E+30*T**(-9); 6000 N !
 FUNCTION FF5000    298.15 +86349.8; 6000 N !
 FUNCTION FF6040    298.15 +111830; 6000 N !
 FUNCTION FF40031   298.15 +60264.2; 6000 N !
 FUNCTION GHSERNI   273 -.0048407*T**2-22.096*T*LN(T)+117.854*T-5179.159; 
     1728 Y
      -43.1*T*LN(T)+279.135*T-27840.655+1.12754E+31*T**(-9); 6000 N !
 FUNCTION FF40124   298.15 +5104.203; 6000 N !
 FUNCTION FF8115    298.15 +118612; 6000 N !
 FUNCTION FF710000  298.15 -4.39974024; 6000 N !
 FUNCTION FF710001  298.15 +15715.8196; 6000 N !
 FUNCTION FF710007  298.15 -.10235277; 6000 N !
 FUNCTION FF710008  298.15 +805.363501; 6000 N !
 FUNCTION VV1175    298.15 +0.0; 6000 N !
 FUNCTION VV1176    298.15 +0.0; 6000 N !
 FUNCTION VV1177    298.15 +0.0; 6000 N !
 FUNCTION FF710003  298.15 -14.5279894; 6000 N !
 FUNCTION FF710004  298.15 +26971.8927; 6000 N !
 FUNCTION FF711003  298.15 -18.1802821; 6000 N !
 FUNCTION FF710002  298.15 +32511.419; 6000 N !
  FUNCTION VV2257    298.15 -130430; 6000 N !
 FUNCTION VV2259    298.15 +78396; 6000 N !
 FUNCTION VV2261    298.15 -77712; 6000 N !
 FUNCTION FF710005  298.15 -.0393784511; 6000 N !
 FUNCTION FF710006  298.15 +440.717764; 6000 N !
 FUNCTION FF710009  298.15 -1.38826707; 6000 N !
 FUNCTION FF710010  298.15 -242.889264; 6000 N !
 FUNCTION FF710011  298.15 -2242.88926; 6000 N !
 FUNCTION FF75003   298.15 +174634; 6000 N !
 FUNCTION FF75004   298.15 +100858; 6000 N !
 FUNCTION FF75011   298.15 +257425; 6000 N !
 FUNCTION FF75012   298.15 +221033; 6000 N !
 FUNCTION FF75013   298.15 +132017; 6000 N !
 FUNCTION FF75020   298.15 +238580; 6000 N !
 FUNCTION FF75021   298.15 +202116; 6000 N !
 FUNCTION FF75028   298.15 +170621; 6000 N !
 FUNCTION FF75029   298.15 +266656; 6000 N !
 FUNCTION FF75030   298.15 +252292; 6000 N !
 FUNCTION FF75031   298.15 +156662; 6000 N !
 FUNCTION FF75032   298.15 +189247; 6000 N !
 FUNCTION FF75033   298.15 +204077; 6000 N !
 FUNCTION FF75034   298.15 +180827; 6000 N !
 FUNCTION FF75058   298.15 +168428; 6000 N !
 FUNCTION FF75059   298.15 +156582; 6000 N !
 FUNCTION FF75060   298.15 +232037; 6000 N !
 FUNCTION FF75067   298.15 +234669; 6000 N !
 FUNCTION FF75068   298.15 +220102; 6000 N !
 FUNCTION FF75075   298.15 +235661; 6000 N !
 FUNCTION FF75076   298.15 +260603; 6000 N !
 FUNCTION FF75008   298.15 -1.70054E-07; 6000 N !
 FUNCTION FF75007   298.15 -.0193835; 6000 N !
 FUNCTION FF75009   298.15 -2.89208; 6000 N !
 FUNCTION FF75010   298.15 -3.0411; 6000 N !
 FUNCTION FF75005   298.15 +34726; 6000 N !
 FUNCTION FF75006   298.15 -324427; 6000 N !
 FUNCTION FF75017   298.15 -1.1859E-06; 6000 N !
 FUNCTION FF75016   298.15 -.0181379; 6000 N !
 FUNCTION FF75018   298.15 +1.62404; 6000 N !
 FUNCTION FF75019   298.15 -88.0315; 6000 N !
 FUNCTION FF75014   298.15 +121296; 6000 N !
 FUNCTION FF75015   298.15 -416673; 6000 N !
 FUNCTION FF75025   298.15 +3.5229E-07; 6000 N !
 FUNCTION FF75024   298.15 -.0145568; 6000 N !
 FUNCTION FF75026   298.15 +1.15777; 6000 N !
 FUNCTION FF75027   298.15 -47.8838; 6000 N !
 FUNCTION FF75022   298.15 +124095; 6000 N !
 FUNCTION FF75023   298.15 -458343; 6000 N !
 FUNCTION FF75038   298.15 +3.42862E-07; 6000 N !
 FUNCTION FF75037   298.15 -.012808; 6000 N !
 FUNCTION FF75039   298.15 -.396308; 6000 N !
 FUNCTION FF75040   298.15 -47.5313; 6000 N !
 FUNCTION FF75035   298.15 +180872; 6000 N !
 FUNCTION FF75036   298.15 -311457; 6000 N !
 FUNCTION FF75044   298.15 +1.56492E-06; 6000 N !
 FUNCTION FF75043   298.15 -.0138963; 6000 N !
 FUNCTION FF75045   298.15 +.42607; 6000 N !
 FUNCTION FF75046   298.15 -43.226; 6000 N !
 FUNCTION FF75041   298.15 +9690; 6000 N !
 FUNCTION FF75042   298.15 -372601; 6000 N !
 FUNCTION FF75049   298.15 -.0108944; 6000 N !
 FUNCTION FF75050   298.15 -1.27815; 6000 N !
 FUNCTION FF75051   298.15 -75.8413; 6000 N !
 FUNCTION FF75047   298.15 +195587; 6000 N !
 FUNCTION FF75048   298.15 -513128; 6000 N !
 FUNCTION FF75055   298.15 +3.11524E-07; 6000 N !
 FUNCTION FF75054   298.15 -.0103483; 6000 N !
 FUNCTION FF75056   298.15 -1.08312; 6000 N !
 FUNCTION FF75057   298.15 -120.9428; 6000 N !
 FUNCTION FF75052   298.15 +171194; 6000 N !
 FUNCTION FF75053   298.15 -529281; 6000 N !
 FUNCTION FF75064   298.15 +1.9299E-06; 6000 N !
 FUNCTION FF75063   298.15 -.00794886; 6000 N !
 FUNCTION FF75065   298.15 -.390421; 6000 N !
 FUNCTION FF75066   298.15 -74.9698; 6000 N !
 FUNCTION FF75061   298.15 +153119; 6000 N !
 FUNCTION FF75062   298.15 -471181; 6000 N !
 FUNCTION FF75072   298.15 +1.30416E-06; 6000 N !
 FUNCTION FF75071   298.15 -.00800799; 6000 N !
 FUNCTION FF75073   298.15 +.221446; 6000 N !
 FUNCTION FF75074   298.15 -90.7; 6000 N !
 FUNCTION FF75069   298.15 +162637; 6000 N !
 FUNCTION FF75070   298.15 -528983; 6000 N !
 FUNCTION FF20126   298.15 +92373.3; 6000 N !
 FUNCTION FF20130   298.15 +130394; 6000 N !
 FUNCTION FF20131   298.15 +98250.2; 6000 N !
 FUNCTION FF20150   298.15 +179295; 6000 N !
 FUNCTION FF20151   298.15 +85086.8; 6000 N !
 FUNCTION FF20155   298.15 +143832; 6000 N !
 FUNCTION FF40001   298.15 +49359.6; 6000 N !
 FUNCTION FF40005   298.15 +103272; 6000 N !
 FUNCTION FF40006   298.15 +33145.3; 6000 N !
 FUNCTION FF40025   298.15 +103334; 6000 N !
 FUNCTION FF40026   298.15 +33164.6; 6000 N !
 FUNCTION FF40030   298.15 +49429; 6000 N !
 FUNCTION FF20129   298.15 +101468; 6000 N !
 FUNCTION FF20145   298.15 +126567; 6000 N !
 FUNCTION FF20221   298.15 +171729; 6000 N !
 FUNCTION FF20225   298.15 +87367.7; 6000 N !
 FUNCTION FF20239   298.15 +132208; 6000 N !
 FUNCTION FF40004   298.15 +21460.1; 6000 N !
 FUNCTION FF40020   298.15 +69880.9; 6000 N !
 FUNCTION FF40024   298.15 -5533.39; 6000 N !
 FUNCTION FF40100   298.15 +69880.9; 6000 N !
 FUNCTION FF40104   298.15 -5506.37; 6000 N !
 FUNCTION FF40120   298.15 +21382.9; 6000 N !
 FUNCTION FF760000  298.15 +241863; 6000 N !
 FUNCTION FF760002  298.15 +238071; 6000 N !
 FUNCTION FF760004  298.15 +246619; 6000 N !
 FUNCTION FF760010  298.15 +357943; 6000 N !
 FUNCTION FF760012  298.15 +336721; 6000 N !
 FUNCTION FF760016  298.15 +307848; 6000 N !
 FUNCTION FF760018  298.15 +338135; 6000 N !
 FUNCTION FF760038  298.15 +322939; 6000 N !
 FUNCTION FF760040  298.15 +326841; 6000 N !
 FUNCTION FF760044  298.15 +349679; 6000 N !
 FUNCTION FF760046  298.15 +347836; 6000 N !
 FUNCTION FF760056  298.15 +380588; 6000 N !
 FUNCTION FF760058  298.15 +367268; 6000 N !
 FUNCTION FF760062  298.15 +348396; 6000 N !
 FUNCTION FF760064  298.15 +364702; 6000 N !
 FUNCTION FF760130  298.15 +292358; 6000 N !
 FUNCTION FF760132  298.15 +311833; 6000 N !
 FUNCTION FF760136  298.15 +305017; 6000 N !
 FUNCTION FF760138  298.15 +312277; 6000 N !
 FUNCTION FF760148  298.15 +334854; 6000 N !
 FUNCTION FF760150  298.15 +339394; 6000 N !
 FUNCTION FF760154  298.15 +349033; 6000 N !
 FUNCTION FF760156  298.15 +375166; 6000 N !
 FUNCTION FF760184  298.15 +330735; 6000 N !
 FUNCTION FF760186  298.15 +339630; 6000 N !
 FUNCTION FF760190  298.15 +383902; 6000 N !
 FUNCTION FF760192  298.15 +406489; 6000 N !
 FUNCTION FF760202  298.15 +365503; 6000 N !
 FUNCTION FF760204  298.15 +371330; 6000 N !
 FUNCTION FF760208  298.15 +440293; 6000 N !
 FUNCTION BLFAB0    298.15 +10.186; 6000 N !
 FUNCTION BLFAB1    298.15 +8.834; 6000 N !
 FUNCTION BLFAB2    298.15 -4.006; 6000 N !
 FUNCTION BLFAB3    298.15 -24.828; 6000 N !
 FUNCTION BLFAB4    298.15 -18.686; 6000 N !
 FUNCTION GLFAB0    298.15 +2.36733*T-15090.2618; 6000 N !
 FUNCTION GLFAB1    298.15 +7781.85057; 6000 N !
 FUNCTION GLFAB2    298.15 -1649.56071; 6000 N !
 FUNCTION TLFAB0    298.15 +2295.6; 6000 N !
 FUNCTION TLFAB1    298.15 -448.8; 6000 N !
 FUNCTION TLFAB2    298.15 -1186; 6000 N !
 FUNCTION TLFAB3    298.15 -4367.6; 6000 N !
 FUNCTION TLFAB4    298.15 -8658.1; 6000 N !
 FUNCTION TLFAB5    298.15 -5671; 6000 N !
 FUNCTION FF8061    298.15 +28389.6; 6000 N !
 FUNCTION FF8069    298.15 +77677.8; 6000 N !
 FUNCTION FF8071    298.15 +47534.1; 6000 N !
 FUNCTION FF8102    298.15 +109049; 6000 N !
 FUNCTION FF8104    298.15 +79981.8; 6000 N !
 FUNCTION FF8112    298.15 +94674.5; 6000 N !
 FUNCTION DBF0A3B   298.15 +.115; 6000 N !
 FUNCTION DBF0AB    298.15 +.115; 6000 N !
 FUNCTION DBF0B3A   298.15 +.115; 6000 N !
 FUNCTION BF0LAAA   298.15 -.75*DBF0A3B#+.75*DBF1A3B#; 6000 N !
 FUNCTION BF1LAAA   298.15 -.75*DBF1A3B#; 6000 N !
 FUNCTION BF0LAAB   298.15 -.25*DBF0A3B#-.5*DBF0AB#-.25*DBF1A3B#+.5*DBF1AB#; 
     6000 N !
 FUNCTION BF1LAAB   298.15 -.75*DBF1A3B#; 6000 N !
 FUNCTION BF0LABB   298.15 -.5*DBF0AB#-.25*DBF0B3A#-.5*DBF1AB#+.25*DBF1B3A#; 
     6000 N !
 FUNCTION BF1LABB   298.15 -.5*DBF1AB#-.25*DBF1B3A#; 6000 N !
 FUNCTION BF0LBBB   298.15 -.75*DBF0B3A#-.75*DBF1B3A#; 6000 N !
 FUNCTION BF1LBBB   298.15 -.75*DBF1B3A#; 6000 N !
 FUNCTION DGF0A3B   298.15 +4470.65465; 6000 N !
 FUNCTION DGF0AB    298.15 -1250; 6000 N !
 FUNCTION DGF0B3A   298.15 -3236.01879; 6000 N !
 FUNCTION ABF0AAA   298.15 -.75*DGF0A3B#+.75*DGF1A3B#; 6000 N !
 FUNCTION ABF1AAA   298.15 -.75*DGF1A3B#; 6000 N !
 FUNCTION ABF0AAB   298.15 -.25*DGF0A3B#-.5*DGF0AB#-.25*DGF1A3B#+.5*DGF1AB#; 
     6000 N !
 FUNCTION ABF1AAB   298.15 -.25*DGF1A3B#-.5*DGF1AB#; 6000 N !
 FUNCTION ABF0ABB   298.15 -.5*DGF0AB#-.25*DGF0B3A#-.5*DGF1AB#+.25*DGF1B3A#; 
     6000 N !
 FUNCTION ABF1ABB   298.15 -.5*DGF1AB#-.25*DGF1B3A#; 6000 N !
 FUNCTION ABF0BBB   298.15 -.75*DGF0B3A#-.75*DGF1B3A#; 6000 N !
 FUNCTION ABF1BBB   298.15 -.75*DGF1B3A#; 6000 N !
 FUNCTION DTF0A3B   298.15 +245; 6000 N !
 FUNCTION DTF0AB    298.15 +245; 6000 N !
 FUNCTION DTF0B3A   298.15 +245; 6000 N !
 FUNCTION TF0LAAA   298.15 -.75*DTF0A3B#+.75*DTF1A3B#; 6000 N !
 FUNCTION TF1LAAA   298.15 -.75*DTF1A3B#; 6000 N !
 FUNCTION TF0LAAB   298.15 -.25*DTF0A3B#-.5*DTF0AB#-.25*DTF1A3B#+.5*DTF1AB#; 
     6000 N !
 FUNCTION TF1LAAB   298.15 -.25*DTF1A3B#-.5*DTF1AB#; 6000 N !
 FUNCTION TF0LABB   298.15 -.5*DTF0AB#-.25*DTF0B3A#-.5*DTF1AB#+.25*DTF1B3A#; 
     6000 N !
 FUNCTION TF1LABB   298.15 -.5*DTF1AB#-.25*DTF1B3A#; 6000 N !
 FUNCTION TF0LBBB   298.15 -.75*DTF0B3A#-.75*DTF1B3A#; 6000 N !
 FUNCTION TF1LBBB   298.15 -.75*DTF1B3A#; 6000 N !
 FUNCTION FF40034   298.15 -27150.8; 6000 N !
 FUNCTION FF40046   298.15 +14661.8; 6000 N !
 FUNCTION FF40049   298.15 -15173.1; 6000 N !
 FUNCTION FF40106   298.15 +14665.7; 6000 N !
 FUNCTION FF40109   298.15 -29180.8; 6000 N !
 FUNCTION FF40121   298.15 -27123.7; 6000 N !
 FUNCTION FF760090  298.15 +456529; 6000 N !
 FUNCTION FF760092  298.15 +436421; 6000 N !
 FUNCTION FF760093  298.15 +439564; 6000 N !
 FUNCTION FF760098  298.15 +450931; 6000 N !
 FUNCTION FF760099  298.15 +464712; 6000 N !
 FUNCTION FF760101  298.15 +419059; 6000 N !
 FUNCTION FF760102  298.15 +411493; 6000 N !
 FUNCTION FF760116  298.15 +449909; 6000 N !
 FUNCTION FF760117  298.15 +436424; 6000 N !
 FUNCTION FF760119  298.15 +365907; 6000 N !
 FUNCTION FF760120  298.15 +369586; 6000 N !
 FUNCTION FF760125  298.15 +467919; 6000 N !
 FUNCTION FF760126  298.15 +447125; 6000 N !
 FUNCTION FF760128  298.15 +341193; 6000 N !
 FUNCTION FF760129  298.15 +295086; 6000 N !
 FUNCTION FF760170  298.15 +695873; 6000 N !
 FUNCTION FF760171  298.15 +432256; 6000 N !
 FUNCTION FF760173  298.15 +402262; 6000 N !
 FUNCTION FF760174  298.15 +400340; 6000 N !
 FUNCTION FF760179  298.15 +440016; 6000 N !
 FUNCTION FF760180  298.15 +451684; 6000 N !
 FUNCTION FF760182  298.15 +392644; 6000 N !
 FUNCTION FF760183  298.15 +330052; 6000 N !
 FUNCTION FF760197  298.15 +411771; 6000 N !
 FUNCTION FF760198  298.15 +388878; 6000 N !
 FUNCTION FF760200  298.15 +418368; 6000 N !
 FUNCTION FF760201  298.15 +360798; 6000 N !
 FUNCTION FF760206  298.15 +388505; 6000 N !
 FUNCTION FF760207  298.15 +320992; 6000 N !
 FUNCTION FF760209  298.15 +488262; 6000 N !
 FUNCTION FF880134  298.15 +127259; 6000 N !
 FUNCTION FF880146  298.15 +121823; 6000 N !
 FUNCTION FF880154  298.15 +69166.9; 6000 N !
 FUNCTION FF880169  298.15 +132416; 6000 N !
 FUNCTION FF880222  298.15 +102518; 6000 N !
 FUNCTION FF880226  298.15 +147711; 6000 N !
 FUNCTION FF40009   298.15 -2978.48; 6000 N !
 FUNCTION FF40021   298.15 -5174.47; 6000 N !
 FUNCTION FF40029   298.15 -2291.51; 6000 N !
 FUNCTION FF40045   298.15 +28441.7; 6000 N !
 FUNCTION FF40101   298.15 -5162.89; 6000 N !
 FUNCTION FF40105   298.15 +28441.7; 6000 N !
 FUNCTION VV3003    298.15 +16.8474621; 6000 N !
 FUNCTION VV3002    298.15 -222967.945; 6000 N !
 FUNCTION FF760001  298.15 +95845.8; 6000 N !
 FUNCTION FF760003  298.15 +113598; 6000 N !
 FUNCTION FF760005  298.15 +233887; 6000 N !
 FUNCTION FF760006  298.15 +135326; 6000 N !
 FUNCTION FF760007  298.15 +165649; 6000 N !
 FUNCTION FF760008  298.15 +176278; 6000 N !
 FUNCTION FF760009  298.15 +183619; 6000 N !
 FUNCTION FF760011  298.15 +257220; 6000 N !
 FUNCTION FF760013  298.15 +140475; 6000 N !
 FUNCTION FF760014  298.15 +146936; 6000 N !
 FUNCTION FF760015  298.15 +153307; 6000 N !
 FUNCTION FF760017  298.15 +169612; 6000 N !
 FUNCTION FF760019  298.15 +202944; 6000 N !
 FUNCTION FF760020  298.15 +132561; 6000 N !
 FUNCTION FF760021  298.15 +149395; 6000 N !
 FUNCTION FF760022  298.15 +144119; 6000 N !
 FUNCTION FF760023  298.15 +131473; 6000 N !
 FUNCTION FF760024  298.15 +219311; 6000 N !
 FUNCTION FF760025  298.15 +116741; 6000 N !
 FUNCTION FF760026  298.15 +118364; 6000 N !
 FUNCTION FF760027  298.15 +118241; 6000 N !
 FUNCTION FF760028  298.15 +107172; 6000 N !
 FUNCTION FF760029  298.15 +259802; 6000 N !
 FUNCTION FF760030  298.15 +226681; 6000 N !
 FUNCTION FF760031  298.15 +233153; 6000 N !
 FUNCTION FF760032  298.15 +132093; 6000 N !
 FUNCTION FF760033  298.15 +151508; 6000 N !
 FUNCTION FF760034  298.15 +149108; 6000 N !
 FUNCTION FF760035  298.15 +166839; 6000 N !
 FUNCTION FF760036  298.15 +139261; 6000 N !
 FUNCTION FF760037  298.15 +163694; 6000 N !
 FUNCTION FF760039  298.15 +192981; 6000 N !
 FUNCTION FF760041  298.15 +141362; 6000 N !
 FUNCTION FF760042  298.15 +153685; 6000 N !
 FUNCTION FF760043  298.15 +149332; 6000 N !
 FUNCTION FF760045  298.15 +158502; 6000 N !
 FUNCTION FF760047  298.15 +226217; 6000 N !
 FUNCTION FF760048  298.15 +216093; 6000 N !
 FUNCTION FF760049  298.15 +203302; 6000 N !
 FUNCTION FF760050  298.15 +122344; 6000 N !
 FUNCTION FF760051  298.15 +124464; 6000 N !
 FUNCTION FF760052  298.15 +122832; 6000 N !
 FUNCTION FF760053  298.15 +127942; 6000 N !
 FUNCTION FF760054  298.15 +131958; 6000 N !
 FUNCTION FF760055  298.15 +145753; 6000 N !
 FUNCTION FF760057  298.15 +225144; 6000 N !
 FUNCTION FF760059  298.15 +135057; 6000 N !
 FUNCTION FF760060  298.15 +151476; 6000 N !
 FUNCTION FF760061  298.15 +154185; 6000 N !
 FUNCTION FF760063  298.15 +123555; 6000 N !
 FUNCTION FF760065  298.15 +177255; 6000 N !
 FUNCTION FF760066  298.15 +125556; 6000 N !
 FUNCTION FF760067  298.15 +190671; 6000 N !
 FUNCTION FF760068  298.15 +169475; 6000 N !
 FUNCTION FF760069  298.15 +162676; 6000 N !
 FUNCTION FF760070  298.15 +179511; 6000 N !
 FUNCTION FF760071  298.15 +139565; 6000 N !
 FUNCTION FF760072  298.15 +121042; 6000 N !
 FUNCTION FF760073  298.15 +109673; 6000 N !
 FUNCTION FF760074  298.15 +109444; 6000 N !
 FUNCTION FF760075  298.15 +238903; 6000 N !
 FUNCTION FF760076  298.15 +201050; 6000 N !
 FUNCTION FF760077  298.15 +205365; 6000 N !
 FUNCTION FF760078  298.15 +181850; 6000 N !
 FUNCTION FF760079  298.15 +161841; 6000 N !
 FUNCTION FF760080  298.15 +162684; 6000 N !
 FUNCTION FF760081  298.15 +138921; 6000 N !
 FUNCTION FF760082  298.15 +129579; 6000 N !
 FUNCTION FF760083  298.15 +148787; 6000 N !
 FUNCTION FF760084  298.15 +169018; 6000 N !
 FUNCTION FF760085  298.15 +122949; 6000 N !
 FUNCTION FF760086  298.15 +86378.8; 6000 N !
 FUNCTION FF760087  298.15 +47179; 6000 N !
 FUNCTION FF760088  298.15 +56777.3; 6000 N !
 FUNCTION FF760089  298.15 +127900; 6000 N !
 FUNCTION FF760091  298.15 +43220.3; 6000 N !
 FUNCTION FF760094  298.15 +184021; 6000 N !
 FUNCTION FF760095  298.15 +147658; 6000 N !
 FUNCTION FF760096  298.15 +154275; 6000 N !
 FUNCTION FF760097  298.15 +143221; 6000 N !
 FUNCTION FF760100  298.15 +79393.3; 6000 N !
 FUNCTION FF760103  298.15 +167080; 6000 N !
 FUNCTION FF760104  298.15 +158346; 6000 N !
 FUNCTION FF760105  298.15 +166178; 6000 N !
 FUNCTION FF760106  298.15 +121214; 6000 N !
 FUNCTION FF760107  298.15 +98065; 6000 N !
 FUNCTION FF760108  298.15 +90078.9; 6000 N !
 FUNCTION FF760109  298.15 +78415.9; 6000 N !
 FUNCTION FF760110  298.15 +64774.9; 6000 N !
 FUNCTION FF760111  298.15 +66109.3; 6000 N !
 FUNCTION FF760112  298.15 +169598; 6000 N !
 FUNCTION FF760113  298.15 +142540; 6000 N !
 FUNCTION FF760114  298.15 +130010; 6000 N !
 FUNCTION FF760115  298.15 +92702.3; 6000 N !
 FUNCTION FF760118  298.15 +58891.3; 6000 N !
 FUNCTION FF760121  298.15 +166506; 6000 N !
 FUNCTION FF760122  298.15 +145499; 6000 N !
 FUNCTION FF760123  298.15 +218212; 6000 N !
 FUNCTION FF760124  298.15 +110206; 6000 N !
 FUNCTION FF760127  298.15 +40256.2; 6000 N !
 FUNCTION FF760131  298.15 +193169; 6000 N !
 FUNCTION FF760133  298.15 +163361; 6000 N !
 FUNCTION FF760135  298.15 +145207; 6000 N !
 FUNCTION FF760137  298.15 +104200; 6000 N !
 FUNCTION FF760139  298.15 +201020; 6000 N !
 FUNCTION FF760140  298.15 +195570; 6000 N !
 FUNCTION FF760141  298.15 +218483; 6000 N !
 FUNCTION FF760142  298.15 +156210; 6000 N !
 FUNCTION FF760143  298.15 +155638; 6000 N !
 FUNCTION FF760144  298.15 +155800; 6000 N !
 FUNCTION FF760145  298.15 +133543; 6000 N !
 FUNCTION FF760146  298.15 +160527; 6000 N !
 FUNCTION FF760147  298.15 +118646; 6000 N !
 FUNCTION FF760149  298.15 +181494; 6000 N !
 FUNCTION FF760151  298.15 +157490; 6000 N !
 FUNCTION FF760152  298.15 +148437; 6000 N !
 FUNCTION FF760153  298.15 +140856; 6000 N !
 FUNCTION FF760155  298.15 +150576; 6000 N !
 FUNCTION FF760157  298.15 +183275; 6000 N !
 FUNCTION FF760158  298.15 +170763; 6000 N !
 FUNCTION FF760159  298.15 +171027; 6000 N !
 FUNCTION FF760160  298.15 +125571; 6000 N !
 FUNCTION FF760161  298.15 +110338; 6000 N !
 FUNCTION FF760162  298.15 +108068; 6000 N !
 FUNCTION FF760163  298.15 +112962; 6000 N !
 FUNCTION FF760164  298.15 +199791; 6000 N !
 FUNCTION FF760165  298.15 +86269.7; 6000 N !
 FUNCTION FF760166  298.15 +177442; 6000 N !
 FUNCTION FF760167  298.15 +175697; 6000 N !
 FUNCTION FF760168  298.15 +204226; 6000 N !
 FUNCTION FF760169  298.15 +57982.4; 6000 N !
 FUNCTION FF760172  298.15 +50844.5; 6000 N !
 FUNCTION FF760175  298.15 +173439; 6000 N !
 FUNCTION FF760176  298.15 +152865; 6000 N !
 FUNCTION FF760177  298.15 +153896; 6000 N !
 FUNCTION FF760178  298.15 +79841.9; 6000 N !
 FUNCTION FF760181  298.15 +79940.3; 6000 N !
 FUNCTION FF760185  298.15 +130555; 6000 N !
 FUNCTION FF760187  298.15 +112137; 6000 N !
 FUNCTION FF760188  298.15 +93315; 6000 N !
 FUNCTION FF760189  298.15 +88324.8; 6000 N !
 FUNCTION FF760191  298.15 +152751; 6000 N !
 FUNCTION FF760193  298.15 +164949; 6000 N !
 FUNCTION FF760194  298.15 +139310; 6000 N !
 FUNCTION FF760195  298.15 +145392; 6000 N !
 FUNCTION FF760196  298.15 +53753.5; 6000 N !
 FUNCTION FF760199  298.15 +98181.7; 6000 N !
 FUNCTION FF760203  298.15 +138057; 6000 N !
 FUNCTION FF760205  298.15 +79057.5; 6000 N !
 FUNCTION DGF1A3B   298.15 +0.0; 6000 N !
 FUNCTION DGF1AB    298.15 +0.0; 6000 N !
 FUNCTION DGF1B3A   298.15 +766.93282; 6000 N !
 FUNCTION DBF1A3B   298.15 +0.0; 6000 N !
 FUNCTION DBF1AB    298.15 +0.0; 6000 N !
 FUNCTION DBF1B3A   298.15 +0.0; 6000 N !
 FUNCTION DTF1B3A   298.15 +0.0; 6000 N !
 FUNCTION DTF1A3B   298.15 +0.0; 6000 N !
 FUNCTION DTF1AB    298.15 +0.0; 6000 N !
 FUNCTION UN_ASS 298.15 +0; 300 N !
 
 TYPE_DEFINITION % SEQ *!
 DEFINE_SYSTEM_DEFAULT ELEMENT 2 !
 DEFAULT_COMMAND DEF_SYS_ELEMENT VA /- !


 TYPE_DEFINITION & GES A_P_D BCC_A2 MAGNETIC  -1.0    4.00000E-01 !
 PHASE BCC_A2  %&  2 1   3 !
    CONSTITUENT BCC_A2  :CR,CU,FE,NI : VA :  !

   PARAMETER BMAGN(BCC_A2,CR:VA;0)        298.15 -.008; 6000 N REF0 !
   PARAMETER G(BCC_A2,CR:VA;0)            298.15 +GHSERCR#; 6000 N REF0 !
   PARAMETER NT(BCC_A2,CR:VA;0)           298.15 +311.5; 6000 N REF0 !
   PARAMETER TC(BCC_A2,CR:VA;0)           298.15 -311.5; 6000 N REF0 !
   PARAMETER G(BCC_A2,CU:VA;0)            298.15 +GBCCCU#; 3200 N REF0 !
   PARAMETER BMAGN(BCC_A2,FE:VA;0)        298.15 +2.22; 6000 N REF0 !
   PARAMETER G(BCC_A2,FE:VA;0)            298.15 +GHSERFE#; 6000 N REF0 !
   PARAMETER NT(BCC_A2,FE:VA;0)           298.15 -1043; 6000 N REF0 !
   PARAMETER TC(BCC_A2,FE:VA;0)           298.15 +1043; 6000 N REF0 !
   PARAMETER BMAGN(BCC_A2,NI:VA;0)        298.15 +.85; 6000 N REF0 !
   PARAMETER G(BCC_A2,NI:VA;0)            298.15 -3.556*T+GHSERNI#+8715.084; 
  6000 N REF0 !
   PARAMETER TC(BCC_A2,NI:VA;0)           298.15 +575; 6000 N REF0 !
   PARAMETER G(BCC_A2,CR,CU:VA;0)         298.15 +81000; 6000 N REF0 !
   PARAMETER G(BCC_A2,CR,FE:VA;0)         298.15 +FF710000#*T+FF710001#; 
  6000 N REF0 !
   PARAMETER G(BCC_A2,CR,FE:VA;1)         298.15 +FF710007#*T+FF710008#; 
  6000 N REF0 !
   PARAMETER TC(BCC_A2,CR,FE:VA;0)        298.15 +905.46076; 6000 N REF0 !
   PARAMETER TC(BCC_A2,CR,FE:VA;1)        298.15 -299.693496; 6000 N REF0 !
   PARAMETER TC(BCC_A2,CR,FE:VA;2)        298.15 +159.422929; 6000 N REF0 !
   PARAMETER TC(BCC_A2,CR,FE:VA;3)        298.15 -91.1351805; 6000 N REF0 !
   PARAMETER TC(BCC_A2,CR,FE:VA;4)        298.15 +121.180169; 6000 N REF0 !
   PARAMETER TC(BCC_A2,CR,FE:VA;5)        298.15 -26.4262922; 6000 N REF0 !
   PARAMETER NT(BCC_A2,CR,FE:VA;0)        298.15 -84652.1762; 6000 N REF0 !
   PARAMETER NT(BCC_A2,CR,FE:VA;1)        298.15 +290242.644; 6000 N REF0 !
   PARAMETER NT(BCC_A2,CR,FE:VA;2)        298.15 -331779.335; 6000 N REF0 !
   PARAMETER NT(BCC_A2,CR,FE:VA;3)        298.15 +126481.087; 6000 N REF0 !
   PARAMETER BMAGN(BCC_A2,CR,FE:VA;0)     298.15 -1.30319804; 6000 N REF0 !
   PARAMETER BMAGN(BCC_A2,CR,FE:VA;1)     298.15 -1.30580037; 6000 N REF0 !
   PARAMETER BMAGN(BCC_A2,CR,FE:VA;2)     298.15 +1.08208397; 6000 N REF0 !
   PARAMETER G(BCC_A2,CR,FE,NI:VA;0)      298.15 -485.295334*T+305881.228; 
  6000 N REF0 !
   PARAMETER G(BCC_A2,CR,FE,NI:VA;1)      298.15 +.3*VV3003#*T+VV3002#; 6000 
  N REF0 !
   PARAMETER G(BCC_A2,CR,FE,NI:VA;2)      298.15 -375*T+1115220; 6000 N REF0 !
   PARAMETER G(BCC_A2,CR,NI:VA;0)         298.15 +14500-9*T; 6000 N REF0 !
   PARAMETER G(BCC_A2,CR,NI:VA;1)         298.15 +27500-7.6*T; 6000 N REF0 !
   PARAMETER TC(BCC_A2,CR,NI:VA;0)        298.15 +2373; 6000 N REF0 !
   PARAMETER TC(BCC_A2,CR,NI:VA;1)        298.15 +617; 6000 N REF0 !
   PARAMETER BMAGN(BCC_A2,CR,NI:VA;0)     298.15 +4; 6000 N REF0 !
   PARAMETER G(BCC_A2,CU,FE:VA;0)         298.15 +39676-4.73222*T; 6000 N 
  REF0 !
   PARAMETER TC(BCC_A2,CU,FE:VA;0)        298.15 -41.4; 6000 N REF0 !
   PARAMETER G(BCC_A2,CU,FE,NI:VA;0)      298.15 +VV1175#; 6000 N REF0 !
   PARAMETER G(BCC_A2,CU,FE,NI:VA;1)      298.15 +VV1176#; 6000 N REF0 !
   PARAMETER G(BCC_A2,CU,FE,NI:VA;2)      298.15 +VV1177#; 6000 N REF0 !
   PARAMETER G(BCC_A2,CU,VA:VA;0)         298.15 +100000; 6000 N REF0 !
   PARAMETER G(BCC_A2,CU,NI:VA;0)         298.15 +8047.72+3.42217*T; 6000 N 
  REF0 !
   PARAMETER G(BCC_A2,CU,NI:VA;1)         298.15 -2041.3+.99714*T; 6000 N 
  REF0 !
   PARAMETER BMAGN(BCC_A2,FE,NI:VA;0)     298.15 +1.0177; 6000 N REF0 !
   PARAMETER BMAGN(BCC_A2,FE,NI:VA;1)     298.15 +.5144; 6000 N REF0 !
   PARAMETER BMAGN(BCC_A2,FE,NI:VA;2)     298.15 +1.0733; 6000 N REF0 !
   PARAMETER BMAGN(BCC_A2,FE,NI:VA;3)     298.15 +1.0314; 6000 N REF0 !
   PARAMETER G(BCC_A2,FE,NI:VA;0)         298.15 -4809.03804-1.5*T; 6000 N 
  REF0 !
   PARAMETER G(BCC_A2,FE,NI:VA;1)         298.15 +3040.2745; 6000 N REF0 !
   PARAMETER G(BCC_A2,FE,NI:VA;2)         298.15 -1469.08373; 6000 N REF0 !
   PARAMETER TC(BCC_A2,FE,NI:VA;0)        298.15 +385.8; 6000 N REF0 !


 TYPE_DEFINITION ' GES A_P_D FCC_A1 MAGNETIC  -3.0    2.80000E-01 !
 PHASE FCC_A1  %'  2 1   1 !
    CONSTITUENT FCC_A1  :CR,CU,FE,NI : VA :  !

   PARAMETER BMAGN(FCC_A1,CR:VA;0)        298.15 -2.46; 6000 N REF0 !
   PARAMETER G(FCC_A1,CR:VA;0)            298.15 +.163*T+GHSERCR#+7284; 6000 
  N REF0 !
   PARAMETER TC(FCC_A1,CR:VA;0)           298.15 -1109; 6000 N REF0 !
   PARAMETER G(FCC_A1,CU:VA;0)            298.15 +GHSERCU#; 3200 N REF0 !
   PARAMETER BMAGN(FCC_A1,FE:VA;0)        298.15 -2.1; 6000 N REF0 !
   PARAMETER G(FCC_A1,FE:VA;0)            298.15 +GFCCFE#; 6000 N REF0 !
   PARAMETER NT(FCC_A1,FE:VA;0)           298.15 +201; 6000 N REF0 !
   PARAMETER TC(FCC_A1,FE:VA;0)           298.15 -201; 6000 N REF0 !
   PARAMETER BMAGN(FCC_A1,NI:VA;0)        298.15 +.52; 6000 N REF0 !
   PARAMETER G(FCC_A1,NI:VA;0)            298.15 +GHSERNI#; 6000 N REF0 !
   PARAMETER TC(FCC_A1,NI:VA;0)           298.15 +633; 6000 N REF0 !
   PARAMETER G(FCC_A1,CR,CU:VA;0)         298.15 +52900; 6000 N REF0 !
   PARAMETER G(FCC_A1,CR,CU,NI:VA;0)      298.15 -60633; 6000 N REF0 !
   PARAMETER G(FCC_A1,CR,CU,NI:VA;1)      298.15 -262801+175*T; 6000 N REF0 !
   PARAMETER G(FCC_A1,CR,CU,NI:VA;2)      298.15 +0.0; 6000 N REF0 !
   PARAMETER G(FCC_A1,CR,FE:VA;0)         298.15 +FF710003#*T+FF710004#; 
  6000 N REF0 !
   PARAMETER G(FCC_A1,CR,FE:VA;1)         298.15 +FF711003#*T+FF710002#; 
  6000 N REF0 !
   PARAMETER G(FCC_A1,CR,FE,NI:VA;0)      298.15 -50.5488907*T-44509.0018; 
  6000 N REF0 !
   PARAMETER G(FCC_A1,CR,FE,NI:VA;1)      298.15 -75*T-158016.75; 6000 N 
  REF0 !
   PARAMETER G(FCC_A1,CR,FE,NI:VA;2)      298.15 +25*T-103989.01; 6000 N 
  REF0 !
   PARAMETER G(FCC_A1,CR,NI:VA;0)         298.15 +4300-8.9*T; 6000 N REF0 !
   PARAMETER G(FCC_A1,CR,NI:VA;1)         298.15 +27000-13.8*T; 6000 N REF0 !
   PARAMETER TC(FCC_A1,CR,NI:VA;0)        298.15 -3605; 6000 N REF0 !
   PARAMETER BMAGN(FCC_A1,CR,NI:VA;0)     298.15 -1.91; 6000 N REF0 !
   PARAMETER G(FCC_A1,CU,FE:VA;0)         298.15 +43319.6-6.94445*T; 6000 N 
  REF0 !
   PARAMETER G(FCC_A1,CU,FE:VA;1)         298.15 +6068.6-2.83662*T; 6000 N 
  REF0 !
   PARAMETER G(FCC_A1,CU,FE:VA;2)         298.15 +3629.4; 6000 N REF0 !
   PARAMETER G(FCC_A1,CU,FE,NI:VA;0)      298.15 +VV2257#+70.251*T; 6000 N 
  REF0 !
   PARAMETER G(FCC_A1,CU,FE,NI:VA;1)      298.15 +VV2259#-65.505*T; 6000 N 
  REF0 !
   PARAMETER G(FCC_A1,CU,FE,NI:VA;2)      298.15 +VV2261#+48.594*T; 6000 N 
  REF0 !
   PARAMETER G(FCC_A1,CU,NI:VA;0)         298.15 +8047.72+3.42*T; 6000 N 
  REF0 !
   PARAMETER G(FCC_A1,CU,NI:VA;1)         298.15 -2041.3+T; 6000 N REF0 !
   PARAMETER TC(FCC_A1,CU,NI:VA;0)        298.15 -935.5; 6000 N REF0 !
   PARAMETER TC(FCC_A1,CU,NI:VA;1)        298.15 -594.9; 6000 N REF0 !
   PARAMETER BMAGN(FCC_A1,CU,NI:VA;0)     298.15 -.7316; 6000 N REF0 !
   PARAMETER BMAGN(FCC_A1,CU,NI:VA;1)     298.15 -.3174; 6000 N REF0 !
   PARAMETER BMAGN(FCC_A1,FE,NI:VA;0)     298.15 +BLFAB0#; 6000 N REF0 !
   PARAMETER BMAGN(FCC_A1,FE,NI:VA;1)     298.15 +BLFAB1#; 6000 N REF0 !
   PARAMETER BMAGN(FCC_A1,FE,NI:VA;2)     298.15 +BLFAB2#; 6000 N REF0 !
   PARAMETER BMAGN(FCC_A1,FE,NI:VA;3)     298.15 +BLFAB3#; 6000 N REF0 !
   PARAMETER BMAGN(FCC_A1,FE,NI:VA;4)     298.15 +BLFAB4#; 6000 N REF0 !
   PARAMETER G(FCC_A1,FE,NI:VA;0)         298.15 +GLFAB0#; 6000 N REF0 !
   PARAMETER G(FCC_A1,FE,NI:VA;1)         298.15 +GLFAB1#; 6000 N REF0 !
   PARAMETER G(FCC_A1,FE,NI:VA;2)         298.15 +GLFAB2#; 6000 N REF0 !
   PARAMETER TC(FCC_A1,FE,NI:VA;0)        298.15 +TLFAB0#; 6000 N REF0 !
   PARAMETER TC(FCC_A1,FE,NI:VA;1)        298.15 +TLFAB1#; 6000 N REF0 !
   PARAMETER TC(FCC_A1,FE,NI:VA;2)        298.15 +TLFAB2#; 6000 N REF0 !
   PARAMETER TC(FCC_A1,FE,NI:VA;3)        298.15 +TLFAB3#; 6000 N REF0 !
   PARAMETER TC(FCC_A1,FE,NI:VA;4)        298.15 +TLFAB4#; 6000 N REF0 !
   PARAMETER TC(FCC_A1,FE,NI:VA;5)        298.15 +TLFAB5#; 6000 N REF0 !


 PHASE GAMMA_DOUBLE_PRIME  %  3 1   1   2 !
    CONSTITUENT GAMMA_DOUBLE_PRIME  :CR,FE,NI : CR,FE,NI : CR,FE,NI :  !

   PARAMETER G(GAMMA_DOUBLE_PRIME,CR:CR:CR;0) 298.15 +4*GHSERCR#+FF40000#; 
  6000 N REF0 !