
$ Database file written 12- 5-30
$
 ELEMENT /-   ELECTRON_GAS              0.0000E+00  0.0000E+00  0.0000E+00!
 ELEMENT VA   VACUUM                    0.0000E+00  0.0000E+00  0.0000E+00!
 ELEMENT FE   BCC_A2                    5.5847E+01  4.4890E+03  2.7280E+01!
 ELEMENT TI   HCP_A3                    4.7880E+01  4.8100E+03  3.0648E+01!
 ELEMENT V    BCC_A2                    5.0941E+01  4.5070E+03  3.0890E+01!


 FUNCTION GHSERFE    2.98140E+02  +1225.7+124.134*T-23.5143*T*LN(T)
     -.00439752*T**2-5.8927E-08*T**3+77359*T**(-1);  1.81100E+03  Y
      -25383.581+299.31255*T-46*T*LN(T)+2.29603E+31*T**(-9);  6.00000E+03  N 
     !
 FUNCTION GHSERTI    2.98140E+02  -8059.921+133.615208*T-23.9933*T*LN(T)
     -.004777975*T**2+1.06716E-07*T**3+72636*T**(-1);  9.00000E+02  Y
      -7811.815+132.988068*T-23.9887*T*LN(T)-.0042033*T**2-9.0876E-08*T**3
     +42680*T**(-1);  1.15500E+03  Y
      +908.837+66.976538*T-14.9466*T*LN(T)-.0081465*T**2+2.02715E-07*T**3
     -1477660*T**(-1);  1.94100E+03  Y
      -124526.786+638.806871*T-87.2182461*T*LN(T)+.008204849*T**2
     -3.04747E-07*T**3+36699805*T**(-1);  4.00000E+03  N !
 FUNCTION GHSERVV    2.98140E+02  -7930.43+133.346053*T-24.134*T*LN(T)
     -.003098*T**2+1.2175E-07*T**3+69460*T**(-1);  7.90000E+02  Y
      -7967.842+143.291093*T-25.9*T*LN(T)+6.25E-05*T**2-6.8E-07*T**3;  
     2.18300E+03  Y
      -41689.864+321.140783*T-47.43*T*LN(T)+6.44389E+31*T**(-9);  
     4.00000E+03  N !
 FUNCTION GFEFCC     2.98140E+02  -236.7+132.416*T-24.6643*T*LN(T)
     -.00375752*T**2-5.8927E-08*T**3+77359*T**(-1);  1.81100E+03  Y
      -27097.3963+300.252559*T-46*T*LN(T)+2.78854E+31*T**(-9);  6.00000E+03  
     N !
 FUNCTION VA1    2.98140E+02  -5.2085487E+04;   6.00000E+03  N !
 FUNCTION VA2    2.98140E+02  1.3493952E+01;   6.00000E+03  N !
 FUNCTION VA3    2.98140E+02   5.4280323E+04;   6.00000E+03  N !
 FUNCTION VA4    2.98140E+02   -4.5375603E+01;   6.00000E+03  N !
 FUNCTION VA5    2.98140E+02   -5.9627195E+04;   6.00000E+03  N !
 FUNCTION VA6    2.98140E+02   0;     6.00000E+03  N !
 FUNCTION VA7    2.98140E+02   -2.0482857E+03;   6.00000E+03  N !
 FUNCTION VA8    2.98140E+02   -2.3535993E+00;   6.00000E+03  N !
 FUNCTION VA9    2.98140E+02   -2.5780017E+04;   6.00000E+03  N !
 FUNCTION VA10    2.98140E+02   0;   6.00000E+03  N !
 FUNCTION VA11   2.98140E+02   -3.9977535E+04;  6.00000E+03  N !
 FUNCTION VA12    2.98140E+02   0;     6.00000E+03  N !
 FUNCTION VA13    2.98140E+02   0;     6.00000E+03  N !
 FUNCTION VA14    2.98140E+02   0;     6.00000E+03  N !
 FUNCTION VA15    2.98140E+02   0;     6.00000E+03  N !
 FUNCTION VA16    2.98140E+02   0;     6.00000E+03  N !
 FUNCTION VA17    2.98140E+02   0;     6.00000E+03  N !
 FUNCTION VA18    2.98140E+02   0;     6.00000E+03  N !
 FUNCTION VA19    2.98140E+02   0;     6.00000E+03  N !
 FUNCTION VA20    2.98140E+02   0;     6.00000E+03  N !
 FUNCTION VA21    2.98140E+02   0;     6.00000E+03  N !
 FUNCTION VA22    2.98140E+02   0;     6.00000E+03  N !
 FUNCTION VA23    2.98140E+02   0;     6.00000E+03  N !
 FUNCTION VA24    2.98140E+02   0;     6.00000E+03  N !
 FUNCTION VA25   2.98140E+02   2.2807613E+04; 6.00000E+03  N !
 FUNCTION VA26    2.98140E+02   0;     6.00000E+03  N !
 FUNCTION VA27   2.98140E+02   4.3130000E+04;  6.00000E+03  N !
 FUNCTION VA28   2.98140E+02   -1.1936400E+01;  6.00000E+03  N !
 FUNCTION VA29   2.98140E+02   1.0000000E+04;  6.00000E+03  N !
 FUNCTION VA30   2.98140E+02   -1.0000000E+00;  6.00000E+03  N !
 FUNCTION VA39   2.98140E+02   -9.8710159E+04;  6.00000E+03  N !
 FUNCTION VA40   2.98140E+02   2.9646007E+01;   6.00000E+03  N !
 FUNCTION VA41    2.98140E+02   0;     6.00000E+03  N !
 FUNCTION VA42    2.98140E+02   0;     6.00000E+03  N !
 FUNCTION VA52   2.98140E+02   5.0000000E+03;   6.00000E+03  N !
 FUNCTION VA53   2.98140E+02   1.5000000E+04;   6.00000E+03  N !
 FUNCTION VA55   2.98140E+02   1.5000000E+04;   6.00000E+03  N !
 FUNCTION VA56    2.98140E+02   0;     6.00000E+03  N !
 FUNCTION VA57   2.98140E+02   1.5000000E+05;   6.00000E+03  N !
 FUNCTION VA58    2.98140E+02   0;     6.00000E+03  N !
 FUNCTION VA59   2.98140E+02   -6.4399844E+05;  6.00000E+03  N !
 FUNCTION VA60   2.98140E+02    2.4226615E+02;  6.00000E+03  N !
 FUNCTION VA61   2.98140E+02   -1.1500000E+06;  6.00000E+03  N !
 FUNCTION VA62    2.98140E+02   0;     6.00000E+03  N !
 FUNCTION VA71    2.98140E+02   0;     6.00000E+03  N !
 FUNCTION VA72    2.98140E+02   0;     6.00000E+03  N !
 FUNCTION VA81   2.98140E+02   1.5000000E+04;  6.00000E+03  N !
 FUNCTION VA82   2.98140E+02   1.5000000E+04;  6.00000E+03  N !
 FUNCTION VA85   2.98140E+02   1.3938169E+04;  6.00000E+03  N !
 FUNCTION VA86   2.98140E+02   -1.4051350E+00;  6.00000E+03  N !
 FUNCTION UN_ASS 298.15 0; 300 N !

 TYPE_DEFINITION % SEQ *!
 DEFINE_SYSTEM_DEFAULT SPECIE 2 !
 DEFAULT_COMMAND DEF_SYS_ELEMENT VA !


 PHASE LIQUID:L %  1  1.0  !
    CONSTITUENT LIQUID:L :FE,TI,V :  !

   PARAMETER G(LIQUID,FE;0)  2.98140E+02  +13265.87+117.57557*T
  -23.5143*T*LN(T)-.00439752*T**2-5.8927E-08*T**3+77359*T**(-1)
  -3.67516E-21*T**7;  1.81100E+03  Y
   -10838.83+291.302*T-46*T*LN(T);  6.00000E+03  N REF:1 !
   PARAMETER G(LIQUID,TI;0)  2.98140E+02  +4134.494+126.63427*T
  -23.9933*T*LN(T)-.004777975*T**2+1.06716E-07*T**3+72636*T**(-1);  
  9.00000E+02  Y
   +4382.601+126.00713*T-23.9887*T*LN(T)-.0042033*T**2-9.0876E-08*T**3
  +42680*T**(-1);  1.15500E+03  Y
   +13103.253+59.9956*T-14.9466*T*LN(T)-.0081465*T**2+2.02715E-07*T**3
  -1477660*T**(-1);  1.30000E+03  Y
   +369519.198-2554.0225*T+342.059267*T*LN(T)-.163409355*T**2
  +1.2457117E-05*T**3-67034516*T**(-1);  1.94100E+03  Y
   -19887.066+298.7367*T-46.29*T*LN(T);  4.00000E+03  N REF:1 !
   PARAMETER G(LIQUID,V;0)  2.98140E+02  +12833.687+123.890501*T
  -24.134*T*LN(T)-.003098*T**2+1.2175E-07*T**3+69460*T**(-1)
  -5.19136E-22*T**7;  7.90000E+02  Y
   +12796.275+133.835541*T-25.9*T*LN(T)+6.25E-05*T**2-6.8E-07*T**3
  -5.19136E-22*T**7;  2.18300E+03  Y
   -19617.51+311.055983*T-47.43*T*LN(T);  4.00000E+03  N REF:1 !
   PARAMETER G(LIQUID,FE,TI;0)  2.98150E+02  -76247+17.845*T;   6.00000E+03  
   N REF:0 !
   PARAMETER G(LIQUID,FE,TI;1)  2.98150E+02  +7990-6.059*T;   6.00000E+03   
  N REF:0 !
   PARAMETER G(LIQUID,FE,TI;2)  2.98150E+02  +4345-2.844*T;   6.00000E+03   
  N REF:0 !
   PARAMETER G(LIQUID,FE,TI,V;0)  2.98150E+02  +VA1#+VA2#*T;   6.00000E+03   N 
  REF:0 !
   PARAMETER G(LIQUID,FE,TI,V;1)  2.98150E+02  +VA3#+VA4#*T;   6.00000E+03   N 
  REF:0 !
   PARAMETER G(LIQUID,FE,TI,V;2)  2.98150E+02  +VA5#+VA6#*T;   6.00000E+03   N 
  REF:0 !
   PARAMETER G(LIQUID,FE,V;0)  2.98150E+02  -35963+10.489*T;   6.00000E+03   
  N REF:0 !
   PARAMETER G(LIQUID,FE,V;1)  2.98150E+02  -4935+6.29*T;   6.00000E+03   N 
  REF:0 !
   PARAMETER G(LIQUID,TI,V;0)  2.98150E+02  7600;   6.00000E+03   N REF:0 !
   PARAMETER G(LIQUID,TI,V;1)  2.98150E+02  2200;   6.00000E+03   N REF:0 !


$ THIS PHASE HAS A DISORDERED CONTRIBUTION FROM BCC_A2                  
 PHASE B2  %  3 .5   .5   3 !
    CONSTITUENT B2  :FE,TI,V : FE,TI,V : VA :  !

       PARA G(B2,FE:FE:VA;0) 298.15 0; 6000 N!
   PARAMETER G(B2,TI:FE:VA;0)  2.98150E+02  -33946.4164-46.685*T
  +8.663*T*LN(T)-.01853*T**2+5.56492656E-06*T**3;   6.00000E+03   N REF:0 !
   PARAMETER TC(B2,TI:FE:VA;0)  2.98150E+02  -1325;   6.00000E+03   N REF:0 !
   PARAMETER G(B2,V:FE:VA;0)  2.98150E+02  5000;   6.00000E+03   N REF:0 !
   PARAMETER G(B2,FE:TI:VA;0)  2.98150E+02  -33946.4164-46.685*T
  +8.663*T*LN(T)-.01853*T**2+5.56492656E-06*T**3;   6.00000E+03   N REF:0 !
   PARAMETER TC(B2,FE:TI:VA;0)  2.98150E+02  -1325;   6.00000E+03   N REF:0 !
       PARA G(B2,TI:TI:VA;0) 298.15 0; 6000 N!
   PARAMETER G(B2,V:TI:VA;0)  2.98150E+02  5000;   6.00000E+03   N REF:0 !
   PARAMETER G(B2,FE:V:VA;0)  2.98150E+02  5000;   6.00000E+03   N REF:0 !
   PARAMETER G(B2,TI:V:VA;0)  2.98150E+02  5000;   6.00000E+03   N REF:0 !
       PARA G(B2,V:V:VA;0) 298.15 0; 6000 N!
   PARAMETER G(B2,FE,TI:FE:VA;0)  2.98150E+02  -10971;   6.00000E+03   N 
  REF:0 !
   PARAMETER G(B2,FE,TI:FE:VA;1)  2.98150E+02  -13764;   6.00000E+03   N 
  REF:0 !
   PARAMETER G(B2,FE:FE,TI:VA;0)  2.98150E+02  -10971;   6.00000E+03   N 
  REF:0 !
   PARAMETER G(B2,FE:FE,TI:VA;1)  2.98150E+02  -13764;   6.00000E+03   N 
  REF:0 !
   PARAMETER G(B2,TI,V:FE:VA;0)  2.98150E+02  +VA29#+VA30#*T;   6.00000E+03   
  N REF:0 !
   PARAMETER G(B2,TI:FE,TI:VA;0)  2.98150E+02  -6097;   6.00000E+03   N 
  REF:0 !
   PARAMETER G(B2,TI:FE,TI:VA;1)  2.98150E+02  12256;   6.00000E+03   N 
  REF:0 !
   PARAMETER G(B2,TI:FE,V:VA;0)  2.98150E+02  +VA27#+VA28#*T;   6.00000E+03   
  N REF:0 !
   PARAMETER G(B2,V:FE,TI:VA;0)  2.98150E+02  +VA25#+VA26#*T;   6.00000E+03   
  N REF:0 !
   PARAMETER G(B2,FE,TI:TI:VA;0)  2.98150E+02  -6097;   6.00000E+03   N 
  REF:0 !
   PARAMETER G(B2,FE,TI:TI:VA;1)  2.98150E+02  12256;   6.00000E+03   N 
  REF:0 !
   PARAMETER G(B2,FE,V:TI:VA;0)  2.98150E+02  +VA27#+VA28#*T;   6.00000E+03   
  N REF:0 !
   PARAMETER G(B2,FE:TI,V:VA;0)  2.98150E+02  +VA29#+VA30#*T;   6.00000E+03   
  N REF:0 !
   PARAMETER G(B2,FE,TI:V:VA;0)  2.98150E+02  +VA25#+VA26#*T;   6.00000E+03   
  N REF:0 !


 TYPE_DEFINITION & GES AMEND_PHASE_DESCRIPTION B2 DIS_PART BCC_A2,,,!
 TYPE_DEFINITION ' GES A_P_D BCC_A2 MAGNETIC  -1.0    4.00000E-01 !
 PHASE BCC_A2  %&'  2 1   3 !
    CONSTITUENT BCC_A2  :FE,TI,V : VA :  !

   PARAMETER G(BCC_A2,FE:VA;0)  2.98150E+02  +GHSERFE#;   6.00000E+03   N 
  REF:1 !
   PARAMETER TC(BCC_A2,FE:VA;0)  2.98150E+02  1043;   6.00000E+03   N REF:1 !
   PARAMETER BMAGN(BCC_A2,FE:VA;0)  2.98150E+02  2.22;   6.00000E+03   N 
  REF:1 !
   PARAMETER G(BCC_A2,TI:VA;0)  2.98140E+02  -1272.064+134.71418*T
  -25.5768*T*LN(T)-6.63845E-04*T**2-2.78803E-07*T**3+7208*T**(-1);  
  1.15500E+03  Y
   +6667.385+105.366379*T-22.3771*T*LN(T)+.00121707*T**2-8.4534E-07*T**3
  -2002750*T**(-1);  1.94100E+03  Y
   +26483.26-182.426471*T+19.0900905*T*LN(T)-.02200832*T**2
  +1.228863E-06*T**3+1400501*T**(-1);  4.00000E+03  N REF:1 !
   PARAMETER G(BCC_A2,V:VA;0)  2.98140E+02  +GHSERVV#;  4.00000E+03  N REF:1 !
   PARAMETER G(BCC_A2,FE,TI:VA;0)  2.98150E+02  -66435+22.512*T;   
  6.00000E+03   N REF:0 !
   PARAMETER G(BCC_A2,FE,TI:VA;1)  2.98150E+02  +5968-5.083*T;   
  6.00000E+03   N REF:0 !
   PARAMETER G(BCC_A2,FE,TI:VA;2)  2.98150E+02  +31454-20.139*T;   
  6.00000E+03   N REF:0 !
   PARAMETER TC(BCC_A2,FE,TI:VA;0)  2.98150E+02  637.79;   6.00000E+03   N 
  REF:0 !
   PARAMETER G(BCC_A2,FE,TI,V:VA;0)  2.98150E+02  +VA7#+VA8#*T;   6.00000E+03  
   N REF:0 !
   PARAMETER G(BCC_A2,FE,TI,V:VA;1)  2.98150E+02  +VA9#+VA10#*T;   6.00000E+03 
    N REF:0 !
   PARAMETER G(BCC_A2,FE,TI,V:VA;2)  2.98150E+02  +VA11#+VA12#*T;   
  6.00000E+03   N REF:0 !
   PARAMETER G(BCC_A2,FE,V:VA;0)  2.98150E+02  -21427+6.846*T;   6.00000E+03 
    N REF:0 !
   PARAMETER G(BCC_A2,FE,V:VA;1)  2.98150E+02  +7345-1.509*T;   6.00000E+03  
   N REF:0 !
   PARAMETER TC(BCC_A2,FE,V:VA;0)  2.98150E+02  -110;   6.00000E+03   N 
  REF:0 !
   PARAMETER TC(BCC_A2,FE,V:VA;1)  2.98150E+02  3075;   6.00000E+03   N 
  REF:0 !
   PARAMETER TC(BCC_A2,FE,V:VA;2)  2.98150E+02  808;   6.00000E+03   N REF:0 !
   PARAMETER TC(BCC_A2,FE,V:VA;3)  2.98150E+02  -2169;   6.00000E+03   N 
  REF:0 !
   PARAMETER BMAGN(BCC_A2,FE,V:VA;0)  2.98150E+02  -2.26;   6.00000E+03   N 
  REF:0 !
   PARAMETER G(BCC_A2,TI,V:VA;0)  2.98150E+02  14000;   6.00000E+03   N 
  REF:0 !
   PARAMETER G(BCC_A2,TI,V:VA;1)  2.98150E+02  1500;   6.00000E+03   N REF:0 !


 PHASE C14  %  2 2   1 !
    CONSTITUENT C14  :FE,TI,V : FE,TI,V :  !

   PARAMETER G(C14,FE:FE;0)  2.98150E+02  +3*GHSERFE#+15000;   6.00000E+03   
  N REF:0 !
   PARAMETER G(C14,TI:FE;0)  2.98150E+02  +GHSERFE#+2*GHSERTI#+104521.949
  -347.611689*T+64.502*T*LN(T)+.0241491*T**2-3.936825E-06*T**3
  -14318.2906*T**(-1);   6.00000E+03   N REF:0 !
   PARAMETER G(C14,V:FE;0)  2.98150E+02  +GHSERFE#+2*GHSERVV#+VA82#;   
  6.00000E+03   N REF:0 !
   PARAMETER G(C14,FE:TI;0)  2.98150E+02  -74521.9494+347.611689*T
  -64.502*T*LN(T)-.0241491*T**2+3.936825E-06*T**3+14318.2906*T**(-1);   
  6.00000E+03   N REF:0 !
   PARAMETER G(C14,TI:TI;0)  2.98150E+02  +3*GHSERTI#+15000;   6.00000E+03   
  N REF:0 !
   PARAMETER G(C14,V:TI;0)  2.98150E+02  +GHSERTI#+2*GHSERVV#+VA81#;   
  6.00000E+03   N REF:0 !
   PARAMETER G(C14,FE:V;0)  2.98150E+02  +2*GHSERFE#+GHSERVV#+VA52#;   
  6.00000E+03   N REF:0 !
   PARAMETER G(C14,TI:V;0)  2.98150E+02  +2*GHSERTI#+GHSERVV#+VA53#;   
  6.00000E+03   N REF:0 !
   PARAMETER G(C14,V:V;0)  2.98150E+02  +3*GHSERVV#+15000;   6.00000E+03   N 
  REF:0 !
   PARAMETER G(C14,FE,TI:FE;0)  2.98150E+02  3177;   6.00000E+03   N REF:0 !
   PARAMETER G(C14,FE,V:FE;0)  2.98150E+02  +VA39#+VA40#*T;   6.00000E+03   N 
  REF:0 !
   PARAMETER G(C14,FE,V:FE;1)  2.98150E+02  +VA85#+VA86#*T;   6.00000E+03   N 
  REF:0 !
   PARAMETER G(C14,TI,V:FE;0)  2.98150E+02  +VA41#+VA42#*T;   6.00000E+03   N 
  REF:0 !
   PARAMETER G(C14,TI:FE,V;0)  2.98150E+02  +VA71#+VA72#*T;   6.00000E+03   N 
  REF:0 !
   PARAMETER G(C14,V:FE,V;0)  2.98150E+02  +VA71#+VA72#*T;   6.00000E+03   N 
  REF:0 !
   PARAMETER G(C14,FE,TI:TI;0)  2.98150E+02  3177;   6.00000E+03   N REF:0 !
   PARAMETER G(C14,FE,V:TI;0)  2.98150E+02  +VA39#+VA40#*T;   6.00000E+03   N 
  REF:0 !
   PARAMETER G(C14,FE,V:TI;1)  2.98150E+02  +VA85#+VA86#*T;   6.00000E+03   N 
  REF:0 !
   PARAMETER G(C14,TI,V:TI;0)  2.98150E+02  +VA41#+VA42#*T;   6.00000E+03   N 
  REF:0 !
   PARAMETER G(C14,FE,TI:V;0)  2.98150E+02  3177;   6.00000E+03   N REF:0 !
   PARAMETER G(C14,FE,V:V;0)  2.98150E+02  +VA39#+VA40#*T;   6.00000E+03   N 
  REF:0 !
   PARAMETER G(C14,FE,V:V;1)  2.98150E+02  +VA85#+VA86#*T;   6.00000E+03   N 
  REF:0 !



 TYPE_DEFINITION ) GES A_P_D FCC_A1 MAGNETIC  -3.0    2.80000E-01 !
 PHASE FCC_A1  %)  2 1   1 !
    CONSTITUENT FCC_A1  :FE,TI,V : VA :  !

   PARAMETER G(FCC_A1,FE:VA;0)  2.98140E+02  -236.7+132.416*T
  -24.6643*T*LN(T)-.00375752*T**2-5.8927E-08*T**3+77359*T**(-1);  
  1.81100E+03  Y
   -27097.3963+300.252559*T-46*T*LN(T)+2.78854E+31*T**(-9);  6.00000E+03  N 
  REF:1 !
   PARAMETER TC(FCC_A1,FE:VA;0)  2.98150E+02  -201;   6.00000E+03   N REF:1 !
   PARAMETER BMAGN(FCC_A1,FE:VA;0)  2.98150E+02  -2.1;   6.00000E+03   N 
  REF:1 !
   PARAMETER G(FCC_A1,TI:VA;0)  2.98140E+02  -2059.921+133.515208*T
  -23.9933*T*LN(T)-.004777975*T**2+1.06716E-07*T**3+72636*T**(-1);  
  9.00000E+02  Y
   -1811.815+132.888068*T-23.9887*T*LN(T)-.0042033*T**2-9.0876E-08*T**3
  +42680*T**(-1);  1.15500E+03  Y
   +6908.837+66.876538*T-14.9466*T*LN(T)-.0081465*T**2+2.02715E-07*T**3
  -1477660*T**(-1);  1.94100E+03  Y
   -118526.786+638.706871*T-87.2182461*T*LN(T)+.008204849*T**2
  -3.04747E-07*T**3+36699805*T**(-1);  4.00000E+03  N REF:1 !
   PARAMETER G(FCC_A1,V:VA;0)  2.98140E+02  -430.43+135.046053*T
  -24.134*T*LN(T)-.003098*T**2+1.2175E-07*T**3+69460*T**(-1);  7.90000E+02  Y
   -467.842+144.991093*T-25.9*T*LN(T)+6.25E-05*T**2-6.8E-07*T**3;  
  2.18300E+03  Y
   -34189.864+322.840783*T-47.43*T*LN(T)+6.44389E+31*T**(-9);  4.00000E+03  
  N REF:1 !
   PARAMETER G(FCC_A1,FE,TI:VA;0)  2.98150E+02  -56022+8.356*T;   
  6.00000E+03   N REF:0 !
   PARAMETER G(FCC_A1,FE,TI:VA;1)  2.98150E+02  +4773-4.029*T;   6.00000E+03 
    N REF:0 !
   PARAMETER G(FCC_A1,FE,TI:VA;2)  2.98150E+02  +30021-12.614*T;   
  6.00000E+03   N REF:0 !
   PARAMETER G(FCC_A1,FE,TI,V:VA;0)  2.98150E+02  +VA13#+VA14#*T;   
  6.00000E+03   N REF:0 !
   PARAMETER G(FCC_A1,FE,TI,V:VA;1)  2.98150E+02  +VA15#+VA16#*T;   
  6.00000E+03   N REF:0 !
   PARAMETER G(FCC_A1,FE,TI,V:VA;2)  2.98150E+02  +VA17#+VA18#*T;   
  6.00000E+03   N REF:0 !
   PARAMETER G(FCC_A1,FE,V:VA;0)  2.98150E+02  -15260+1.765*T;   6.00000E+03 
    N REF:0 !


 TYPE_DEFINITION * GES A_P_D HCP_A3 MAGNETIC  -3.0    2.80000E-01 !
 PHASE HCP_A3  %*  2 1   .5 !
    CONSTITUENT HCP_A3  :FE,TI,V : VA :  !

   PARAMETER G(HCP_A3,FE:VA;0)  2.98140E+02  -2480.08+136.725*T
  -24.6643*T*LN(T)-.00375752*T**2-5.8927E-08*T**3+77359*T**(-1);  
  1.81100E+03  Y
   -29340.776+304.561559*T-46*T*LN(T)+2.78854E+31*T**(-9);  6.00000E+03  N 
  REF:1 !
   PARAMETER G(HCP_A3,TI:VA;0)  2.98140E+02  +GHSERTI#;  4.00000E+03  N 
  REF:1 !
   PARAMETER G(HCP_A3,V:VA;0)  2.98140E+02  -3930.43+135.746053*T
  -24.134*T*LN(T)-.003098*T**2+1.2175E-07*T**3+69460*T**(-1);  7.90000E+02  Y
   -3967.842+145.691093*T-25.9*T*LN(T)+6.25E-05*T**2-6.8E-07*T**3;  
  2.18300E+03  Y
   -37689.864+323.540783*T-47.43*T*LN(T)+6.44389E+31*T**(-9);  4.00000E+03  
  N REF:1 !
   PARAMETER G(HCP_A3,FE,TI:VA;0)  2.98150E+02  -10000+15*T;   6.00000E+03   
  N REF:0 !
   PARAMETER G(HCP_A3,FE,TI,V:VA;0)  2.98150E+02  +VA19#+VA20#*T;   
  6.00000E+03   N REF:0 !
   PARAMETER G(HCP_A3,FE,TI,V:VA;1)  2.98150E+02  +VA21#+VA22#*T;   
  6.00000E+03   N REF:0 !
   PARAMETER G(HCP_A3,FE,TI,V:VA;2)  2.98150E+02  +VA23#+VA24#*T;   
  6.00000E+03   N REF:0 !
   PARAMETER G(HCP_A3,TI,V:VA;0)  2.98150E+02  23200;   6.00000E+03   N 
  REF:0 !


 PHASE SIGMA  %  2 10   20 !
    CONSTITUENT SIGMA  :FE,TI,V : FE,TI,V :  !

   PARAMETER G(SIGMA,FE:FE;0)  2.98150E+02  +30*GHSERFE#+150000;   
  6.00000E+03   N REF:0 !
   PARAMETER G(SIGMA,TI:FE;0)  2.98150E+02  +10*GHSERFE#+20*GHSERTI#+300000
  -VA55#-VA56#*T;   6.00000E+03   N REF:0 !
   PARAMETER G(SIGMA,V:FE;0)  2.98150E+02  +20*GHSERFE#+10*GHSERVV#+509794
  +54.3866*T;   6.00000E+03   N REF:0 !
   PARAMETER G(SIGMA,FE:TI;0)  2.98150E+02  +10*GHSERFE#+20*GHSERTI#+VA55#
  +VA56#*T;   6.00000E+03   N REF:0 !
   PARAMETER G(SIGMA,TI:TI;0)  2.98150E+02  +30*GHSERTI#+150000;   
  6.00000E+03   N REF:0 !
   PARAMETER G(SIGMA,V:TI;0)  2.98150E+02  +20*GHSERTI#+10*GHSERVV#+300000
  -VA57#-VA58#*T;   6.00000E+03   N REF:0 !
   PARAMETER G(SIGMA,FE:V;0)  2.98150E+02  +10*GHSERFE#+20*GHSERVV#-209794
  -54.3866*T;   6.00000E+03   N REF:0 !
   PARAMETER G(SIGMA,TI:V;0)  2.98150E+02  +10*GHSERTI#+20*GHSERVV#+VA57#
  +VA58#*T;   6.00000E+03   N REF:0 !
   PARAMETER G(SIGMA,V:V;0)  2.98150E+02  +30*GHSERVV#+150000;   6.00000E+03 
    N REF:0 !
   PARAMETER G(SIGMA,FE,V:FE;0)  2.98150E+02  -12261.8+12.4435*T;   
  6.00000E+03   N REF:0 !
   PARAMETER G(SIGMA,FE:FE,V;0)  2.98150E+02  -593504+254*T;   6.00000E+03   
  N REF:0 !
   PARAMETER G(SIGMA,FE:FE,V;1)  2.98150E+02  -337226+77.7449*T;   
  6.00000E+03   N REF:0 !
   PARAMETER G(SIGMA,FE:FE,TI;0)  2.98150E+02  +VA61#+VA62#*T;   6.00000E+03   
  N REF:0 !
   PARAMETER G(SIGMA,TI:FE,TI;0)  2.98150E+02  +VA61#+VA62#*T;   6.00000E+03   
  N REF:0 !
   PARAMETER G(SIGMA,V:FE,V;0)  2.98150E+02  -593504+254*T;   6.00000E+03   
  N REF:0 !
   PARAMETER G(SIGMA,V:FE,V;1)  2.98150E+02  -337226+77.7449*T;   
  6.00000E+03   N REF:0 !
   PARAMETER G(SIGMA,FE:TI,V;0)  2.98150E+02  +VA59#+VA60#*T;   6.00000E+03   
  N REF:0 !
   PARAMETER G(SIGMA,FE,V:V;0)  2.98150E+02  -12261.8+12.4435*T;   
  6.00000E+03   N REF:0 !


 LIST_OF_REFERENCES
 NUMBER  SOURCE
  ! 

